\*  *\
Minimize
Objectif: s_0 + 1.04 s_1 + 1.08 s_2 + 1.12 s_3 + 1.16 s_4
Subject To
Contrainte_B.10_k=0: - gamman_0_0 - gamman_0_1 - gamman_0_2 - gamman_0_3
 - gamman_0_4 + t_0_1_0 + t_0_2_0 + t_0_2_1 + t_0_3_0 + t_0_3_1 + t_0_3_2
 + t_0_4_0 + t_0_4_1 + t_0_4_2 + t_0_4_3 = 0
Contrainte_B.10_k=1: - gamman_1_0 - gamman_1_1 - gamman_1_2 - gamman_1_3
 - gamman_1_4 + t_1_1_0 + t_1_2_0 + t_1_2_1 + t_1_3_0 + t_1_3_1 + t_1_3_2
 + t_1_4_0 + t_1_4_1 + t_1_4_2 + t_1_4_3 = 0
Contrainte_B.10_k=2: - gamman_2_0 - gamman_2_1 - gamman_2_2 - gamman_2_3
 - gamman_2_4 + t_2_1_0 + t_2_2_0 + t_2_2_1 + t_2_3_0 + t_2_3_1 + t_2_3_2
 + t_2_4_0 + t_2_4_1 + t_2_4_2 + t_2_4_3 = 0
Contrainte_B.10_k=3: - gamman_3_0 - gamman_3_1 - gamman_3_2 - gamman_3_3
 - gamman_3_4 + t_3_1_0 + t_3_2_0 + t_3_2_1 + t_3_3_0 + t_3_3_1 + t_3_3_2
 + t_3_4_0 + t_3_4_1 + t_3_4_2 + t_3_4_3 = 0
Contrainte_B.10_k=4: - gamman_4_0 - gamman_4_1 - gamman_4_2 - gamman_4_3
 - gamman_4_4 + t_4_1_0 + t_4_2_0 + t_4_2_1 + t_4_3_0 + t_4_3_1 + t_4_3_2
 + t_4_4_0 + t_4_4_1 + t_4_4_2 + t_4_4_3 = 0
Contrainte_B.1_i=0: x_0_0 = 6
Contrainte_B.1_i=1: x_0_1 = 17
Contrainte_B.1_i=2: x_0_2 = 18
Contrainte_B.1_i=3: x_0_3 = 88
Contrainte_B.1_i=4: x_0_4 = 96
Contrainte_B.24_k=0: s_0 <= 1
Contrainte_B.24_k=1: s_1 <= 1
Contrainte_B.24_k=2: s_2 <= 1
Contrainte_B.24_k=3: s_3 <= 1
Contrainte_B.24_k=4: s_4 <= 1
Contrainte_B.2_i=0: x_5_0 = 21
Contrainte_B.2_i=1: x_5_1 = 26
Contrainte_B.2_i=2: x_5_2 = 29
Contrainte_B.2_i=3: x_5_3 = 76
Contrainte_B.2_i=4: x_5_4 = 88
Contrainte_B.3_k=0,i=0: x_0_0 - x_0_1 <= 0
Contrainte_B.3_k=0,i=1: x_0_1 - x_0_2 <= 0
Contrainte_B.3_k=0,i=2: x_0_2 - x_0_3 <= 0
Contrainte_B.3_k=0,i=3: x_0_3 - x_0_4 <= 0
Contrainte_B.3_k=1,i=0: x_1_0 - x_1_1 <= 0
Contrainte_B.3_k=1,i=1: x_1_1 - x_1_2 <= 0
Contrainte_B.3_k=1,i=2: x_1_2 - x_1_3 <= 0
Contrainte_B.3_k=1,i=3: x_1_3 - x_1_4 <= 0
Contrainte_B.3_k=2,i=0: x_2_0 - x_2_1 <= 0
Contrainte_B.3_k=2,i=1: x_2_1 - x_2_2 <= 0
Contrainte_B.3_k=2,i=2: x_2_2 - x_2_3 <= 0
Contrainte_B.3_k=2,i=3: x_2_3 - x_2_4 <= 0
Contrainte_B.3_k=3,i=0: x_3_0 - x_3_1 <= 0
Contrainte_B.3_k=3,i=1: x_3_1 - x_3_2 <= 0
Contrainte_B.3_k=3,i=2: x_3_2 - x_3_3 <= 0
Contrainte_B.3_k=3,i=3: x_3_3 - x_3_4 <= 0
Contrainte_B.3_k=4,i=0: x_4_0 - x_4_1 <= 0
Contrainte_B.3_k=4,i=1: x_4_1 - x_4_2 <= 0
Contrainte_B.3_k=4,i=2: x_4_2 - x_4_3 <= 0
Contrainte_B.3_k=4,i=3: x_4_3 - x_4_4 <= 0
Contrainte_B.3_k=5,i=0: x_5_0 - x_5_1 <= 0
Contrainte_B.3_k=5,i=1: x_5_1 - x_5_2 <= 0
Contrainte_B.3_k=5,i=2: x_5_2 - x_5_3 <= 0
Contrainte_B.3_k=5,i=3: x_5_3 - x_5_4 <= 0
Contrainte_B.4_k=0: - vn_0_0 - vn_0_1 - vn_0_2 - vn_0_3 - vn_0_4 + vp_0_0
 + vp_0_1 + vp_0_2 + vp_0_3 + vp_0_4 = 0
Contrainte_B.4_k=1: - vn_1_0 - vn_1_1 - vn_1_2 - vn_1_3 - vn_1_4 + vp_1_0
 + vp_1_1 + vp_1_2 + vp_1_3 + vp_1_4 = 0
Contrainte_B.4_k=2: - vn_2_0 - vn_2_1 - vn_2_2 - vn_2_3 - vn_2_4 + vp_2_0
 + vp_2_1 + vp_2_2 + vp_2_3 + vp_2_4 = 0
Contrainte_B.4_k=3: - vn_3_0 - vn_3_1 - vn_3_2 - vn_3_3 - vn_3_4 + vp_3_0
 + vp_3_1 + vp_3_2 + vp_3_3 + vp_3_4 = 0
Contrainte_B.4_k=4: - vn_4_0 - vn_4_1 - vn_4_2 - vn_4_3 - vn_4_4 + vp_4_0
 + vp_4_1 + vp_4_2 + vp_4_3 + vp_4_4 = 0
Contrainte_B.5_k=0,i=0: 465 gammap_0_0 - vp_0_0 >= 0
Contrainte_B.5_k=0,i=1: 465 gammap_0_1 - vp_0_1 >= 0
Contrainte_B.5_k=0,i=2: 465 gammap_0_2 - vp_0_2 >= 0
Contrainte_B.5_k=0,i=3: 465 gammap_0_3 - vp_0_3 >= 0
Contrainte_B.5_k=0,i=4: 465 gammap_0_4 - vp_0_4 >= 0
Contrainte_B.5_k=1,i=0: 465 gammap_1_0 - vp_1_0 >= 0
Contrainte_B.5_k=1,i=1: 465 gammap_1_1 - vp_1_1 >= 0
Contrainte_B.5_k=1,i=2: 465 gammap_1_2 - vp_1_2 >= 0
Contrainte_B.5_k=1,i=3: 465 gammap_1_3 - vp_1_3 >= 0
Contrainte_B.5_k=1,i=4: 465 gammap_1_4 - vp_1_4 >= 0
Contrainte_B.5_k=2,i=0: 465 gammap_2_0 - vp_2_0 >= 0
Contrainte_B.5_k=2,i=1: 465 gammap_2_1 - vp_2_1 >= 0
Contrainte_B.5_k=2,i=2: 465 gammap_2_2 - vp_2_2 >= 0
Contrainte_B.5_k=2,i=3: 465 gammap_2_3 - vp_2_3 >= 0
Contrainte_B.5_k=2,i=4: 465 gammap_2_4 - vp_2_4 >= 0
Contrainte_B.5_k=3,i=0: 465 gammap_3_0 - vp_3_0 >= 0
Contrainte_B.5_k=3,i=1: 465 gammap_3_1 - vp_3_1 >= 0
Contrainte_B.5_k=3,i=2: 465 gammap_3_2 - vp_3_2 >= 0
Contrainte_B.5_k=3,i=3: 465 gammap_3_3 - vp_3_3 >= 0
Contrainte_B.5_k=3,i=4: 465 gammap_3_4 - vp_3_4 >= 0
Contrainte_B.5_k=4,i=0: 465 gammap_4_0 - vp_4_0 >= 0
Contrainte_B.5_k=4,i=1: 465 gammap_4_1 - vp_4_1 >= 0
Contrainte_B.5_k=4,i=2: 465 gammap_4_2 - vp_4_2 >= 0
Contrainte_B.5_k=4,i=3: 465 gammap_4_3 - vp_4_3 >= 0
Contrainte_B.5_k=4,i=4: 465 gammap_4_4 - vp_4_4 >= 0
Contrainte_B.6_k=0,i=0: 465 gamman_0_0 - vn_0_0 >= 0
Contrainte_B.6_k=0,i=1: 465 gamman_0_1 - vn_0_1 >= 0
Contrainte_B.6_k=0,i=2: 465 gamman_0_2 - vn_0_2 >= 0
Contrainte_B.6_k=0,i=3: 465 gamman_0_3 - vn_0_3 >= 0
Contrainte_B.6_k=0,i=4: 465 gamman_0_4 - vn_0_4 >= 0
Contrainte_B.6_k=1,i=0: 465 gamman_1_0 - vn_1_0 >= 0
Contrainte_B.6_k=1,i=1: 465 gamman_1_1 - vn_1_1 >= 0
Contrainte_B.6_k=1,i=2: 465 gamman_1_2 - vn_1_2 >= 0
Contrainte_B.6_k=1,i=3: 465 gamman_1_3 - vn_1_3 >= 0
Contrainte_B.6_k=1,i=4: 465 gamman_1_4 - vn_1_4 >= 0
Contrainte_B.6_k=2,i=0: 465 gamman_2_0 - vn_2_0 >= 0
Contrainte_B.6_k=2,i=1: 465 gamman_2_1 - vn_2_1 >= 0
Contrainte_B.6_k=2,i=2: 465 gamman_2_2 - vn_2_2 >= 0
Contrainte_B.6_k=2,i=3: 465 gamman_2_3 - vn_2_3 >= 0
Contrainte_B.6_k=2,i=4: 465 gamman_2_4 - vn_2_4 >= 0
Contrainte_B.6_k=3,i=0: 465 gamman_3_0 - vn_3_0 >= 0
Contrainte_B.6_k=3,i=1: 465 gamman_3_1 - vn_3_1 >= 0
Contrainte_B.6_k=3,i=2: 465 gamman_3_2 - vn_3_2 >= 0
Contrainte_B.6_k=3,i=3: 465 gamman_3_3 - vn_3_3 >= 0
Contrainte_B.6_k=3,i=4: 465 gamman_3_4 - vn_3_4 >= 0
Contrainte_B.6_k=4,i=0: 465 gamman_4_0 - vn_4_0 >= 0
Contrainte_B.6_k=4,i=1: 465 gamman_4_1 - vn_4_1 >= 0
Contrainte_B.6_k=4,i=2: 465 gamman_4_2 - vn_4_2 >= 0
Contrainte_B.6_k=4,i=3: 465 gamman_4_3 - vn_4_3 >= 0
Contrainte_B.6_k=4,i=4: 465 gamman_4_4 - vn_4_4 >= 0
Contrainte_B.7_k=0: - gamman_0_0 - gamman_0_1 - gamman_0_2 - gamman_0_3
 - gamman_0_4 + gammap_0_0 + gammap_0_1 + gammap_0_2 + gammap_0_3 + gammap_0_4
 = 0
Contrainte_B.7_k=1: - gamman_1_0 - gamman_1_1 - gamman_1_2 - gamman_1_3
 - gamman_1_4 + gammap_1_0 + gammap_1_1 + gammap_1_2 + gammap_1_3 + gammap_1_4
 = 0
Contrainte_B.7_k=2: - gamman_2_0 - gamman_2_1 - gamman_2_2 - gamman_2_3
 - gamman_2_4 + gammap_2_0 + gammap_2_1 + gammap_2_2 + gammap_2_3 + gammap_2_4
 = 0
Contrainte_B.7_k=3: - gamman_3_0 - gamman_3_1 - gamman_3_2 - gamman_3_3
 - gamman_3_4 + gammap_3_0 + gammap_3_1 + gammap_3_2 + gammap_3_3 + gammap_3_4
 = 0
Contrainte_B.7_k=4: - gamman_4_0 - gamman_4_1 - gamman_4_2 - gamman_4_3
 - gamman_4_4 + gammap_4_0 + gammap_4_1 + gammap_4_2 + gammap_4_3 + gammap_4_4
 = 0
Contrainte_B.8_k=0,i=0,j=1: - gamman_0_1 - gammap_0_0 + 2 t_0_1_0 <= 0
Contrainte_B.8_k=0,i=0,j=2: - gamman_0_2 - gammap_0_0 + 2 t_0_2_0 <= 0
Contrainte_B.8_k=0,i=0,j=3: - gamman_0_3 - gammap_0_0 + 2 t_0_3_0 <= 0
Contrainte_B.8_k=0,i=0,j=4: - gamman_0_4 - gammap_0_0 + 2 t_0_4_0 <= 0
Contrainte_B.8_k=0,i=1,j=2: - gamman_0_2 - gammap_0_1 + 2 t_0_2_1 <= 0
Contrainte_B.8_k=0,i=1,j=3: - gamman_0_3 - gammap_0_1 + 2 t_0_3_1 <= 0
Contrainte_B.8_k=0,i=1,j=4: - gamman_0_4 - gammap_0_1 + 2 t_0_4_1 <= 0
Contrainte_B.8_k=0,i=2,j=3: - gamman_0_3 - gammap_0_2 + 2 t_0_3_2 <= 0
Contrainte_B.8_k=0,i=2,j=4: - gamman_0_4 - gammap_0_2 + 2 t_0_4_2 <= 0
Contrainte_B.8_k=0,i=3,j=4: - gamman_0_4 - gammap_0_3 + 2 t_0_4_3 <= 0
Contrainte_B.8_k=1,i=0,j=1: - gamman_1_1 - gammap_1_0 + 2 t_1_1_0 <= 0
Contrainte_B.8_k=1,i=0,j=2: - gamman_1_2 - gammap_1_0 + 2 t_1_2_0 <= 0
Contrainte_B.8_k=1,i=0,j=3: - gamman_1_3 - gammap_1_0 + 2 t_1_3_0 <= 0
Contrainte_B.8_k=1,i=0,j=4: - gamman_1_4 - gammap_1_0 + 2 t_1_4_0 <= 0
Contrainte_B.8_k=1,i=1,j=2: - gamman_1_2 - gammap_1_1 + 2 t_1_2_1 <= 0
Contrainte_B.8_k=1,i=1,j=3: - gamman_1_3 - gammap_1_1 + 2 t_1_3_1 <= 0
Contrainte_B.8_k=1,i=1,j=4: - gamman_1_4 - gammap_1_1 + 2 t_1_4_1 <= 0
Contrainte_B.8_k=1,i=2,j=3: - gamman_1_3 - gammap_1_2 + 2 t_1_3_2 <= 0
Contrainte_B.8_k=1,i=2,j=4: - gamman_1_4 - gammap_1_2 + 2 t_1_4_2 <= 0
Contrainte_B.8_k=1,i=3,j=4: - gamman_1_4 - gammap_1_3 + 2 t_1_4_3 <= 0
Contrainte_B.8_k=2,i=0,j=1: - gamman_2_1 - gammap_2_0 + 2 t_2_1_0 <= 0
Contrainte_B.8_k=2,i=0,j=2: - gamman_2_2 - gammap_2_0 + 2 t_2_2_0 <= 0
Contrainte_B.8_k=2,i=0,j=3: - gamman_2_3 - gammap_2_0 + 2 t_2_3_0 <= 0
Contrainte_B.8_k=2,i=0,j=4: - gamman_2_4 - gammap_2_0 + 2 t_2_4_0 <= 0
Contrainte_B.8_k=2,i=1,j=2: - gamman_2_2 - gammap_2_1 + 2 t_2_2_1 <= 0
Contrainte_B.8_k=2,i=1,j=3: - gamman_2_3 - gammap_2_1 + 2 t_2_3_1 <= 0
Contrainte_B.8_k=2,i=1,j=4: - gamman_2_4 - gammap_2_1 + 2 t_2_4_1 <= 0
Contrainte_B.8_k=2,i=2,j=3: - gamman_2_3 - gammap_2_2 + 2 t_2_3_2 <= 0
Contrainte_B.8_k=2,i=2,j=4: - gamman_2_4 - gammap_2_2 + 2 t_2_4_2 <= 0
Contrainte_B.8_k=2,i=3,j=4: - gamman_2_4 - gammap_2_3 + 2 t_2_4_3 <= 0
Contrainte_B.8_k=3,i=0,j=1: - gamman_3_1 - gammap_3_0 + 2 t_3_1_0 <= 0
Contrainte_B.8_k=3,i=0,j=2: - gamman_3_2 - gammap_3_0 + 2 t_3_2_0 <= 0
Contrainte_B.8_k=3,i=0,j=3: - gamman_3_3 - gammap_3_0 + 2 t_3_3_0 <= 0
Contrainte_B.8_k=3,i=0,j=4: - gamman_3_4 - gammap_3_0 + 2 t_3_4_0 <= 0
Contrainte_B.8_k=3,i=1,j=2: - gamman_3_2 - gammap_3_1 + 2 t_3_2_1 <= 0
Contrainte_B.8_k=3,i=1,j=3: - gamman_3_3 - gammap_3_1 + 2 t_3_3_1 <= 0
Contrainte_B.8_k=3,i=1,j=4: - gamman_3_4 - gammap_3_1 + 2 t_3_4_1 <= 0
Contrainte_B.8_k=3,i=2,j=3: - gamman_3_3 - gammap_3_2 + 2 t_3_3_2 <= 0
Contrainte_B.8_k=3,i=2,j=4: - gamman_3_4 - gammap_3_2 + 2 t_3_4_2 <= 0
Contrainte_B.8_k=3,i=3,j=4: - gamman_3_4 - gammap_3_3 + 2 t_3_4_3 <= 0
Contrainte_B.8_k=4,i=0,j=1: - gamman_4_1 - gammap_4_0 + 2 t_4_1_0 <= 0
Contrainte_B.8_k=4,i=0,j=2: - gamman_4_2 - gammap_4_0 + 2 t_4_2_0 <= 0
Contrainte_B.8_k=4,i=0,j=3: - gamman_4_3 - gammap_4_0 + 2 t_4_3_0 <= 0
Contrainte_B.8_k=4,i=0,j=4: - gamman_4_4 - gammap_4_0 + 2 t_4_4_0 <= 0
Contrainte_B.8_k=4,i=1,j=2: - gamman_4_2 - gammap_4_1 + 2 t_4_2_1 <= 0
Contrainte_B.8_k=4,i=1,j=3: - gamman_4_3 - gammap_4_1 + 2 t_4_3_1 <= 0
Contrainte_B.8_k=4,i=1,j=4: - gamman_4_4 - gammap_4_1 + 2 t_4_4_1 <= 0
Contrainte_B.8_k=4,i=2,j=3: - gamman_4_3 - gammap_4_2 + 2 t_4_3_2 <= 0
Contrainte_B.8_k=4,i=2,j=4: - gamman_4_4 - gammap_4_2 + 2 t_4_4_2 <= 0
Contrainte_B.8_k=4,i=3,j=4: - gamman_4_4 - gammap_4_3 + 2 t_4_4_3 <= 0
Contrainte_B.9_k=0,i=0,j=1: - gamman_0_1 - gammap_0_0 + 2 t_0_1_0 >= -1
Contrainte_B.9_k=0,i=0,j=2: - gamman_0_2 - gammap_0_0 + 2 t_0_2_0 >= -1
Contrainte_B.9_k=0,i=0,j=3: - gamman_0_3 - gammap_0_0 + 2 t_0_3_0 >= -1
Contrainte_B.9_k=0,i=0,j=4: - gamman_0_4 - gammap_0_0 + 2 t_0_4_0 >= -1
Contrainte_B.9_k=0,i=1,j=2: - gamman_0_2 - gammap_0_1 + 2 t_0_2_1 >= -1
Contrainte_B.9_k=0,i=1,j=3: - gamman_0_3 - gammap_0_1 + 2 t_0_3_1 >= -1
Contrainte_B.9_k=0,i=1,j=4: - gamman_0_4 - gammap_0_1 + 2 t_0_4_1 >= -1
Contrainte_B.9_k=0,i=2,j=3: - gamman_0_3 - gammap_0_2 + 2 t_0_3_2 >= -1
Contrainte_B.9_k=0,i=2,j=4: - gamman_0_4 - gammap_0_2 + 2 t_0_4_2 >= -1
Contrainte_B.9_k=0,i=3,j=4: - gamman_0_4 - gammap_0_3 + 2 t_0_4_3 >= -1
Contrainte_B.9_k=1,i=0,j=1: - gamman_1_1 - gammap_1_0 + 2 t_1_1_0 >= -1
Contrainte_B.9_k=1,i=0,j=2: - gamman_1_2 - gammap_1_0 + 2 t_1_2_0 >= -1
Contrainte_B.9_k=1,i=0,j=3: - gamman_1_3 - gammap_1_0 + 2 t_1_3_0 >= -1
Contrainte_B.9_k=1,i=0,j=4: - gamman_1_4 - gammap_1_0 + 2 t_1_4_0 >= -1
Contrainte_B.9_k=1,i=1,j=2: - gamman_1_2 - gammap_1_1 + 2 t_1_2_1 >= -1
Contrainte_B.9_k=1,i=1,j=3: - gamman_1_3 - gammap_1_1 + 2 t_1_3_1 >= -1
Contrainte_B.9_k=1,i=1,j=4: - gamman_1_4 - gammap_1_1 + 2 t_1_4_1 >= -1
Contrainte_B.9_k=1,i=2,j=3: - gamman_1_3 - gammap_1_2 + 2 t_1_3_2 >= -1
Contrainte_B.9_k=1,i=2,j=4: - gamman_1_4 - gammap_1_2 + 2 t_1_4_2 >= -1
Contrainte_B.9_k=1,i=3,j=4: - gamman_1_4 - gammap_1_3 + 2 t_1_4_3 >= -1
Contrainte_B.9_k=2,i=0,j=1: - gamman_2_1 - gammap_2_0 + 2 t_2_1_0 >= -1
Contrainte_B.9_k=2,i=0,j=2: - gamman_2_2 - gammap_2_0 + 2 t_2_2_0 >= -1
Contrainte_B.9_k=2,i=0,j=3: - gamman_2_3 - gammap_2_0 + 2 t_2_3_0 >= -1
Contrainte_B.9_k=2,i=0,j=4: - gamman_2_4 - gammap_2_0 + 2 t_2_4_0 >= -1
Contrainte_B.9_k=2,i=1,j=2: - gamman_2_2 - gammap_2_1 + 2 t_2_2_1 >= -1
Contrainte_B.9_k=2,i=1,j=3: - gamman_2_3 - gammap_2_1 + 2 t_2_3_1 >= -1
Contrainte_B.9_k=2,i=1,j=4: - gamman_2_4 - gammap_2_1 + 2 t_2_4_1 >= -1
Contrainte_B.9_k=2,i=2,j=3: - gamman_2_3 - gammap_2_2 + 2 t_2_3_2 >= -1
Contrainte_B.9_k=2,i=2,j=4: - gamman_2_4 - gammap_2_2 + 2 t_2_4_2 >= -1
Contrainte_B.9_k=2,i=3,j=4: - gamman_2_4 - gammap_2_3 + 2 t_2_4_3 >= -1
Contrainte_B.9_k=3,i=0,j=1: - gamman_3_1 - gammap_3_0 + 2 t_3_1_0 >= -1
Contrainte_B.9_k=3,i=0,j=2: - gamman_3_2 - gammap_3_0 + 2 t_3_2_0 >= -1
Contrainte_B.9_k=3,i=0,j=3: - gamman_3_3 - gammap_3_0 + 2 t_3_3_0 >= -1
Contrainte_B.9_k=3,i=0,j=4: - gamman_3_4 - gammap_3_0 + 2 t_3_4_0 >= -1
Contrainte_B.9_k=3,i=1,j=2: - gamman_3_2 - gammap_3_1 + 2 t_3_2_1 >= -1
Contrainte_B.9_k=3,i=1,j=3: - gamman_3_3 - gammap_3_1 + 2 t_3_3_1 >= -1
Contrainte_B.9_k=3,i=1,j=4: - gamman_3_4 - gammap_3_1 + 2 t_3_4_1 >= -1
Contrainte_B.9_k=3,i=2,j=3: - gamman_3_3 - gammap_3_2 + 2 t_3_3_2 >= -1
Contrainte_B.9_k=3,i=2,j=4: - gamman_3_4 - gammap_3_2 + 2 t_3_4_2 >= -1
Contrainte_B.9_k=3,i=3,j=4: - gamman_3_4 - gammap_3_3 + 2 t_3_4_3 >= -1
Contrainte_B.9_k=4,i=0,j=1: - gamman_4_1 - gammap_4_0 + 2 t_4_1_0 >= -1
Contrainte_B.9_k=4,i=0,j=2: - gamman_4_2 - gammap_4_0 + 2 t_4_2_0 >= -1
Contrainte_B.9_k=4,i=0,j=3: - gamman_4_3 - gammap_4_0 + 2 t_4_3_0 >= -1
Contrainte_B.9_k=4,i=0,j=4: - gamman_4_4 - gammap_4_0 + 2 t_4_4_0 >= -1
Contrainte_B.9_k=4,i=1,j=2: - gamman_4_2 - gammap_4_1 + 2 t_4_2_1 >= -1
Contrainte_B.9_k=4,i=1,j=3: - gamman_4_3 - gammap_4_1 + 2 t_4_3_1 >= -1
Contrainte_B.9_k=4,i=1,j=4: - gamman_4_4 - gammap_4_1 + 2 t_4_4_1 >= -1
Contrainte_B.9_k=4,i=2,j=3: - gamman_4_3 - gammap_4_2 + 2 t_4_3_2 >= -1
Contrainte_B.9_k=4,i=2,j=4: - gamman_4_4 - gammap_4_2 + 2 t_4_4_2 >= -1
Contrainte_B.9_k=4,i=3,j=4: - gamman_4_4 - gammap_4_3 + 2 t_4_4_3 >= -1
Contrainte_C.11_k=0: 465 g_0 - u_0_0 - u_0_1 - u_0_2 - u_0_3 - u_0_4 >= 0
Contrainte_C.11_k=1: 465 g_1 - u_1_0 - u_1_1 - u_1_2 - u_1_3 - u_1_4 >= 0
Contrainte_C.11_k=2: 465 g_2 - u_2_0 - u_2_1 - u_2_2 - u_2_3 - u_2_4 >= 0
Contrainte_C.11_k=3: 465 g_3 - u_3_0 - u_3_1 - u_3_2 - u_3_3 - u_3_4 >= 0
Contrainte_C.11_k=4: 465 g_4 - u_4_0 - u_4_1 - u_4_2 - u_4_3 - u_4_4 >= 0
Contrainte_C.11bis_k=0: 465 g_0 - u_0_0 - u_0_1 - u_0_2 - u_0_3 - u_0_4
 <= 464.99999
Contrainte_C.11bis_k=1: 465 g_1 - u_1_0 - u_1_1 - u_1_2 - u_1_3 - u_1_4
 <= 464.99999
Contrainte_C.11bis_k=2: 465 g_2 - u_2_0 - u_2_1 - u_2_2 - u_2_3 - u_2_4
 <= 464.99999
Contrainte_C.11bis_k=3: 465 g_3 - u_3_0 - u_3_1 - u_3_2 - u_3_3 - u_3_4
 <= 464.99999
Contrainte_C.11bis_k=4: 465 g_4 - u_4_0 - u_4_1 - u_4_2 - u_4_3 - u_4_4
 <= 464.99999
Contrainte_C.13_k=0,i=0: - u_0_0 + vn_0_0 - vp_0_0 - x_0_0 + x_1_0 = 0
Contrainte_C.13_k=0,i=1: - u_0_1 + vn_0_1 - vp_0_1 - x_0_1 + x_1_1 = 0
Contrainte_C.13_k=0,i=2: - u_0_2 + vn_0_2 - vp_0_2 - x_0_2 + x_1_2 = 0
Contrainte_C.13_k=0,i=3: - u_0_3 + vn_0_3 - vp_0_3 - x_0_3 + x_1_3 = 0
Contrainte_C.13_k=0,i=4: - u_0_4 + vn_0_4 - vp_0_4 - x_0_4 + x_1_4 = 0
Contrainte_C.13_k=1,i=0: - u_1_0 + vn_1_0 - vp_1_0 - x_1_0 + x_2_0 = 0
Contrainte_C.13_k=1,i=1: - u_1_1 + vn_1_1 - vp_1_1 - x_1_1 + x_2_1 = 0
Contrainte_C.13_k=1,i=2: - u_1_2 + vn_1_2 - vp_1_2 - x_1_2 + x_2_2 = 0
Contrainte_C.13_k=1,i=3: - u_1_3 + vn_1_3 - vp_1_3 - x_1_3 + x_2_3 = 0
Contrainte_C.13_k=1,i=4: - u_1_4 + vn_1_4 - vp_1_4 - x_1_4 + x_2_4 = 0
Contrainte_C.13_k=2,i=0: - u_2_0 + vn_2_0 - vp_2_0 - x_2_0 + x_3_0 = 0
Contrainte_C.13_k=2,i=1: - u_2_1 + vn_2_1 - vp_2_1 - x_2_1 + x_3_1 = 0
Contrainte_C.13_k=2,i=2: - u_2_2 + vn_2_2 - vp_2_2 - x_2_2 + x_3_2 = 0
Contrainte_C.13_k=2,i=3: - u_2_3 + vn_2_3 - vp_2_3 - x_2_3 + x_3_3 = 0
Contrainte_C.13_k=2,i=4: - u_2_4 + vn_2_4 - vp_2_4 - x_2_4 + x_3_4 = 0
Contrainte_C.13_k=3,i=0: - u_3_0 + vn_3_0 - vp_3_0 - x_3_0 + x_4_0 = 0
Contrainte_C.13_k=3,i=1: - u_3_1 + vn_3_1 - vp_3_1 - x_3_1 + x_4_1 = 0
Contrainte_C.13_k=3,i=2: - u_3_2 + vn_3_2 - vp_3_2 - x_3_2 + x_4_2 = 0
Contrainte_C.13_k=3,i=3: - u_3_3 + vn_3_3 - vp_3_3 - x_3_3 + x_4_3 = 0
Contrainte_C.13_k=3,i=4: - u_3_4 + vn_3_4 - vp_3_4 - x_3_4 + x_4_4 = 0
Contrainte_C.13_k=4,i=0: - u_4_0 + vn_4_0 - vp_4_0 - x_4_0 + x_5_0 = 0
Contrainte_C.13_k=4,i=1: - u_4_1 + vn_4_1 - vp_4_1 - x_4_1 + x_5_1 = 0
Contrainte_C.13_k=4,i=2: - u_4_2 + vn_4_2 - vp_4_2 - x_4_2 + x_5_2 = 0
Contrainte_C.13_k=4,i=3: - u_4_3 + vn_4_3 - vp_4_3 - x_4_3 + x_5_3 = 0
Contrainte_C.13_k=4,i=4: - u_4_4 + vn_4_4 - vp_4_4 - x_4_4 + x_5_4 = 0
Contrainte_C.25_k=0: g_0 - s_0 + t_0_1_0 + t_0_2_0 + t_0_2_1 + t_0_3_0
 + t_0_3_1 + t_0_3_2 + t_0_4_0 + t_0_4_1 + t_0_4_2 + t_0_4_3 = 0
Contrainte_C.25_k=1: g_1 - s_1 + t_1_1_0 + t_1_2_0 + t_1_2_1 + t_1_3_0
 + t_1_3_1 + t_1_3_2 + t_1_4_0 + t_1_4_1 + t_1_4_2 + t_1_4_3 = 0
Contrainte_C.25_k=2: g_2 - s_2 + t_2_1_0 + t_2_2_0 + t_2_2_1 + t_2_3_0
 + t_2_3_1 + t_2_3_2 + t_2_4_0 + t_2_4_1 + t_2_4_2 + t_2_4_3 = 0
Contrainte_C.25_k=3: g_3 - s_3 + t_3_1_0 + t_3_2_0 + t_3_2_1 + t_3_3_0
 + t_3_3_1 + t_3_3_2 + t_3_4_0 + t_3_4_1 + t_3_4_2 + t_3_4_3 = 0
Contrainte_C.25_k=4: g_4 - s_4 + t_4_1_0 + t_4_2_0 + t_4_2_1 + t_4_3_0
 + t_4_3_1 + t_4_3_2 + t_4_4_0 + t_4_4_1 + t_4_4_2 + t_4_4_3 = 0
Contrainte_C.27: s_0 + s_1 + s_2 = 3
Bounds
 0 <= u_0_0
 0 <= u_0_1
 0 <= u_0_2
 0 <= u_0_3
 0 <= u_0_4
 0 <= u_1_0
 0 <= u_1_1
 0 <= u_1_2
 0 <= u_1_3
 0 <= u_1_4
 0 <= u_2_0
 0 <= u_2_1
 0 <= u_2_2
 0 <= u_2_3
 0 <= u_2_4
 0 <= u_3_0
 0 <= u_3_1
 0 <= u_3_2
 0 <= u_3_3
 0 <= u_3_4
 0 <= u_4_0
 0 <= u_4_1
 0 <= u_4_2
 0 <= u_4_3
 0 <= u_4_4
 0 <= vn_0_0
 0 <= vn_0_1
 0 <= vn_0_2
 0 <= vn_0_3
 0 <= vn_0_4
 0 <= vn_1_0
 0 <= vn_1_1
 0 <= vn_1_2
 0 <= vn_1_3
 0 <= vn_1_4
 0 <= vn_2_0
 0 <= vn_2_1
 0 <= vn_2_2
 0 <= vn_2_3
 0 <= vn_2_4
 0 <= vn_3_0
 0 <= vn_3_1
 0 <= vn_3_2
 0 <= vn_3_3
 0 <= vn_3_4
 0 <= vn_4_0
 0 <= vn_4_1
 0 <= vn_4_2
 0 <= vn_4_3
 0 <= vn_4_4
 0 <= vp_0_0
 0 <= vp_0_1
 0 <= vp_0_2
 0 <= vp_0_3
 0 <= vp_0_4
 0 <= vp_1_0
 0 <= vp_1_1
 0 <= vp_1_2
 0 <= vp_1_3
 0 <= vp_1_4
 0 <= vp_2_0
 0 <= vp_2_1
 0 <= vp_2_2
 0 <= vp_2_3
 0 <= vp_2_4
 0 <= vp_3_0
 0 <= vp_3_1
 0 <= vp_3_2
 0 <= vp_3_3
 0 <= vp_3_4
 0 <= vp_4_0
 0 <= vp_4_1
 0 <= vp_4_2
 0 <= vp_4_3
 0 <= vp_4_4
 0 <= x_0_0
 0 <= x_0_1
 0 <= x_0_2
 0 <= x_0_3
 0 <= x_0_4
 0 <= x_1_0
 0 <= x_1_1
 0 <= x_1_2
 0 <= x_1_3
 0 <= x_1_4
 0 <= x_2_0
 0 <= x_2_1
 0 <= x_2_2
 0 <= x_2_3
 0 <= x_2_4
 0 <= x_3_0
 0 <= x_3_1
 0 <= x_3_2
 0 <= x_3_3
 0 <= x_3_4
 0 <= x_4_0
 0 <= x_4_1
 0 <= x_4_2
 0 <= x_4_3
 0 <= x_4_4
 0 <= x_5_0
 0 <= x_5_1
 0 <= x_5_2
 0 <= x_5_3
 0 <= x_5_4
Generals
u_0_0
u_0_1
u_0_2
u_0_3
u_0_4
u_1_0
u_1_1
u_1_2
u_1_3
u_1_4
u_2_0
u_2_1
u_2_2
u_2_3
u_2_4
u_3_0
u_3_1
u_3_2
u_3_3
u_3_4
u_4_0
u_4_1
u_4_2
u_4_3
u_4_4
vn_0_0
vn_0_1
vn_0_2
vn_0_3
vn_0_4
vn_1_0
vn_1_1
vn_1_2
vn_1_3
vn_1_4
vn_2_0
vn_2_1
vn_2_2
vn_2_3
vn_2_4
vn_3_0
vn_3_1
vn_3_2
vn_3_3
vn_3_4
vn_4_0
vn_4_1
vn_4_2
vn_4_3
vn_4_4
vp_0_0
vp_0_1
vp_0_2
vp_0_3
vp_0_4
vp_1_0
vp_1_1
vp_1_2
vp_1_3
vp_1_4
vp_2_0
vp_2_1
vp_2_2
vp_2_3
vp_2_4
vp_3_0
vp_3_1
vp_3_2
vp_3_3
vp_3_4
vp_4_0
vp_4_1
vp_4_2
vp_4_3
vp_4_4
x_0_0
x_0_1
x_0_2
x_0_3
x_0_4
x_1_0
x_1_1
x_1_2
x_1_3
x_1_4
x_2_0
x_2_1
x_2_2
x_2_3
x_2_4
x_3_0
x_3_1
x_3_2
x_3_3
x_3_4
x_4_0
x_4_1
x_4_2
x_4_3
x_4_4
x_5_0
x_5_1
x_5_2
x_5_3
x_5_4
Binaries
g_0
g_1
g_2
g_3
g_4
gamman_0_0
gamman_0_1
gamman_0_2
gamman_0_3
gamman_0_4
gamman_1_0
gamman_1_1
gamman_1_2
gamman_1_3
gamman_1_4
gamman_2_0
gamman_2_1
gamman_2_2
gamman_2_3
gamman_2_4
gamman_3_0
gamman_3_1
gamman_3_2
gamman_3_3
gamman_3_4
gamman_4_0
gamman_4_1
gamman_4_2
gamman_4_3
gamman_4_4
gammap_0_0
gammap_0_1
gammap_0_2
gammap_0_3
gammap_0_4
gammap_1_0
gammap_1_1
gammap_1_2
gammap_1_3
gammap_1_4
gammap_2_0
gammap_2_1
gammap_2_2
gammap_2_3
gammap_2_4
gammap_3_0
gammap_3_1
gammap_3_2
gammap_3_3
gammap_3_4
gammap_4_0
gammap_4_1
gammap_4_2
gammap_4_3
gammap_4_4
s_0
s_1
s_2
s_3
s_4
t_0_1_0
t_0_2_0
t_0_2_1
t_0_3_0
t_0_3_1
t_0_3_2
t_0_4_0
t_0_4_1
t_0_4_2
t_0_4_3
t_1_1_0
t_1_2_0
t_1_2_1
t_1_3_0
t_1_3_1
t_1_3_2
t_1_4_0
t_1_4_1
t_1_4_2
t_1_4_3
t_2_1_0
t_2_2_0
t_2_2_1
t_2_3_0
t_2_3_1
t_2_3_2
t_2_4_0
t_2_4_1
t_2_4_2
t_2_4_3
t_3_1_0
t_3_2_0
t_3_2_1
t_3_3_0
t_3_3_1
t_3_3_2
t_3_4_0
t_3_4_1
t_3_4_2
t_3_4_3
t_4_1_0
t_4_2_0
t_4_2_1
t_4_3_0
t_4_3_1
t_4_3_2
t_4_4_0
t_4_4_1
t_4_4_2
t_4_4_3
End
