\*  *\
Minimize
Objectif: __dummy
Subject To
Contrainte_B.10_k=0: - gamman_0_0 - gamman_0_1 - gamman_0_2 - gamman_0_3
 - gamman_0_4 + t_0_1_0 + t_0_2_0 + t_0_2_1 + t_0_3_0 + t_0_3_1 + t_0_3_2
 + t_0_4_0 + t_0_4_1 + t_0_4_2 + t_0_4_3 = 0
Contrainte_B.10_k=1: - gamman_1_0 - gamman_1_1 - gamman_1_2 - gamman_1_3
 - gamman_1_4 + t_1_1_0 + t_1_2_0 + t_1_2_1 + t_1_3_0 + t_1_3_1 + t_1_3_2
 + t_1_4_0 + t_1_4_1 + t_1_4_2 + t_1_4_3 = 0
Contrainte_B.10_k=2: - gamman_2_0 - gamman_2_1 - gamman_2_2 - gamman_2_3
 - gamman_2_4 + t_2_1_0 + t_2_2_0 + t_2_2_1 + t_2_3_0 + t_2_3_1 + t_2_3_2
 + t_2_4_0 + t_2_4_1 + t_2_4_2 + t_2_4_3 = 0
Contrainte_B.10_k=3: - gamman_3_0 - gamman_3_1 - gamman_3_2 - gamman_3_3
 - gamman_3_4 + t_3_1_0 + t_3_2_0 + t_3_2_1 + t_3_3_0 + t_3_3_1 + t_3_3_2
 + t_3_4_0 + t_3_4_1 + t_3_4_2 + t_3_4_3 = 0
Contrainte_B.10_k=4: - gamman_4_0 - gamman_4_1 - gamman_4_2 - gamman_4_3
 - gamman_4_4 + t_4_1_0 + t_4_2_0 + t_4_2_1 + t_4_3_0 + t_4_3_1 + t_4_3_2
 + t_4_4_0 + t_4_4_1 + t_4_4_2 + t_4_4_3 = 0
Contrainte_B.10_k=5: - gamman_5_0 - gamman_5_1 - gamman_5_2 - gamman_5_3
 - gamman_5_4 + t_5_1_0 + t_5_2_0 + t_5_2_1 + t_5_3_0 + t_5_3_1 + t_5_3_2
 + t_5_4_0 + t_5_4_1 + t_5_4_2 + t_5_4_3 = 0
Contrainte_B.10_k=6: - gamman_6_0 - gamman_6_1 - gamman_6_2 - gamman_6_3
 - gamman_6_4 + t_6_1_0 + t_6_2_0 + t_6_2_1 + t_6_3_0 + t_6_3_1 + t_6_3_2
 + t_6_4_0 + t_6_4_1 + t_6_4_2 + t_6_4_3 = 0
Contrainte_B.10_k=7: - gamman_7_0 - gamman_7_1 - gamman_7_2 - gamman_7_3
 - gamman_7_4 + t_7_1_0 + t_7_2_0 + t_7_2_1 + t_7_3_0 + t_7_3_1 + t_7_3_2
 + t_7_4_0 + t_7_4_1 + t_7_4_2 + t_7_4_3 = 0
Contrainte_B.10_k=8: - gamman_8_0 - gamman_8_1 - gamman_8_2 - gamman_8_3
 - gamman_8_4 + t_8_1_0 + t_8_2_0 + t_8_2_1 + t_8_3_0 + t_8_3_1 + t_8_3_2
 + t_8_4_0 + t_8_4_1 + t_8_4_2 + t_8_4_3 = 0
Contrainte_B.1_i=0: x_0_0 = 6
Contrainte_B.1_i=1: x_0_1 = 17
Contrainte_B.1_i=2: x_0_2 = 18
Contrainte_B.1_i=3: x_0_3 = 88
Contrainte_B.1_i=4: x_0_4 = 96
Contrainte_B.2_i=0: x_9_0 = 20
Contrainte_B.2_i=1: x_9_1 = 26
Contrainte_B.2_i=2: x_9_2 = 26
Contrainte_B.2_i=3: x_9_3 = 26
Contrainte_B.2_i=4: x_9_4 = 100
Contrainte_B.3_k=0,i=0: x_0_0 - x_0_1 <= 0
Contrainte_B.3_k=0,i=1: x_0_1 - x_0_2 <= 0
Contrainte_B.3_k=0,i=2: x_0_2 - x_0_3 <= 0
Contrainte_B.3_k=0,i=3: x_0_3 - x_0_4 <= 0
Contrainte_B.3_k=1,i=0: x_1_0 - x_1_1 <= 0
Contrainte_B.3_k=1,i=1: x_1_1 - x_1_2 <= 0
Contrainte_B.3_k=1,i=2: x_1_2 - x_1_3 <= 0
Contrainte_B.3_k=1,i=3: x_1_3 - x_1_4 <= 0
Contrainte_B.3_k=2,i=0: x_2_0 - x_2_1 <= 0
Contrainte_B.3_k=2,i=1: x_2_1 - x_2_2 <= 0
Contrainte_B.3_k=2,i=2: x_2_2 - x_2_3 <= 0
Contrainte_B.3_k=2,i=3: x_2_3 - x_2_4 <= 0
Contrainte_B.3_k=3,i=0: x_3_0 - x_3_1 <= 0
Contrainte_B.3_k=3,i=1: x_3_1 - x_3_2 <= 0
Contrainte_B.3_k=3,i=2: x_3_2 - x_3_3 <= 0
Contrainte_B.3_k=3,i=3: x_3_3 - x_3_4 <= 0
Contrainte_B.3_k=4,i=0: x_4_0 - x_4_1 <= 0
Contrainte_B.3_k=4,i=1: x_4_1 - x_4_2 <= 0
Contrainte_B.3_k=4,i=2: x_4_2 - x_4_3 <= 0
Contrainte_B.3_k=4,i=3: x_4_3 - x_4_4 <= 0
Contrainte_B.3_k=5,i=0: x_5_0 - x_5_1 <= 0
Contrainte_B.3_k=5,i=1: x_5_1 - x_5_2 <= 0
Contrainte_B.3_k=5,i=2: x_5_2 - x_5_3 <= 0
Contrainte_B.3_k=5,i=3: x_5_3 - x_5_4 <= 0
Contrainte_B.3_k=6,i=0: x_6_0 - x_6_1 <= 0
Contrainte_B.3_k=6,i=1: x_6_1 - x_6_2 <= 0
Contrainte_B.3_k=6,i=2: x_6_2 - x_6_3 <= 0
Contrainte_B.3_k=6,i=3: x_6_3 - x_6_4 <= 0
Contrainte_B.3_k=7,i=0: x_7_0 - x_7_1 <= 0
Contrainte_B.3_k=7,i=1: x_7_1 - x_7_2 <= 0
Contrainte_B.3_k=7,i=2: x_7_2 - x_7_3 <= 0
Contrainte_B.3_k=7,i=3: x_7_3 - x_7_4 <= 0
Contrainte_B.3_k=8,i=0: x_8_0 - x_8_1 <= 0
Contrainte_B.3_k=8,i=1: x_8_1 - x_8_2 <= 0
Contrainte_B.3_k=8,i=2: x_8_2 - x_8_3 <= 0
Contrainte_B.3_k=8,i=3: x_8_3 - x_8_4 <= 0
Contrainte_B.3_k=9,i=0: x_9_0 - x_9_1 <= 0
Contrainte_B.3_k=9,i=1: x_9_1 - x_9_2 <= 0
Contrainte_B.3_k=9,i=2: x_9_2 - x_9_3 <= 0
Contrainte_B.3_k=9,i=3: x_9_3 - x_9_4 <= 0
Contrainte_B.4_k=0: - vn_0_0 - vn_0_1 - vn_0_2 - vn_0_3 - vn_0_4 + vp_0_0
 + vp_0_1 + vp_0_2 + vp_0_3 + vp_0_4 = 0
Contrainte_B.4_k=1: - vn_1_0 - vn_1_1 - vn_1_2 - vn_1_3 - vn_1_4 + vp_1_0
 + vp_1_1 + vp_1_2 + vp_1_3 + vp_1_4 = 0
Contrainte_B.4_k=2: - vn_2_0 - vn_2_1 - vn_2_2 - vn_2_3 - vn_2_4 + vp_2_0
 + vp_2_1 + vp_2_2 + vp_2_3 + vp_2_4 = 0
Contrainte_B.4_k=3: - vn_3_0 - vn_3_1 - vn_3_2 - vn_3_3 - vn_3_4 + vp_3_0
 + vp_3_1 + vp_3_2 + vp_3_3 + vp_3_4 = 0
Contrainte_B.4_k=4: - vn_4_0 - vn_4_1 - vn_4_2 - vn_4_3 - vn_4_4 + vp_4_0
 + vp_4_1 + vp_4_2 + vp_4_3 + vp_4_4 = 0
Contrainte_B.4_k=5: - vn_5_0 - vn_5_1 - vn_5_2 - vn_5_3 - vn_5_4 + vp_5_0
 + vp_5_1 + vp_5_2 + vp_5_3 + vp_5_4 = 0
Contrainte_B.4_k=6: - vn_6_0 - vn_6_1 - vn_6_2 - vn_6_3 - vn_6_4 + vp_6_0
 + vp_6_1 + vp_6_2 + vp_6_3 + vp_6_4 = 0
Contrainte_B.4_k=7: - vn_7_0 - vn_7_1 - vn_7_2 - vn_7_3 - vn_7_4 + vp_7_0
 + vp_7_1 + vp_7_2 + vp_7_3 + vp_7_4 = 0
Contrainte_B.4_k=8: - vn_8_0 - vn_8_1 - vn_8_2 - vn_8_3 - vn_8_4 + vp_8_0
 + vp_8_1 + vp_8_2 + vp_8_3 + vp_8_4 = 0
Contrainte_B.5_k=0,i=0: 423 gammap_0_0 - vp_0_0 >= 0
Contrainte_B.5_k=0,i=1: 423 gammap_0_1 - vp_0_1 >= 0
Contrainte_B.5_k=0,i=2: 423 gammap_0_2 - vp_0_2 >= 0
Contrainte_B.5_k=0,i=3: 423 gammap_0_3 - vp_0_3 >= 0
Contrainte_B.5_k=0,i=4: 423 gammap_0_4 - vp_0_4 >= 0
Contrainte_B.5_k=1,i=0: 423 gammap_1_0 - vp_1_0 >= 0
Contrainte_B.5_k=1,i=1: 423 gammap_1_1 - vp_1_1 >= 0
Contrainte_B.5_k=1,i=2: 423 gammap_1_2 - vp_1_2 >= 0
Contrainte_B.5_k=1,i=3: 423 gammap_1_3 - vp_1_3 >= 0
Contrainte_B.5_k=1,i=4: 423 gammap_1_4 - vp_1_4 >= 0
Contrainte_B.5_k=2,i=0: 423 gammap_2_0 - vp_2_0 >= 0
Contrainte_B.5_k=2,i=1: 423 gammap_2_1 - vp_2_1 >= 0
Contrainte_B.5_k=2,i=2: 423 gammap_2_2 - vp_2_2 >= 0
Contrainte_B.5_k=2,i=3: 423 gammap_2_3 - vp_2_3 >= 0
Contrainte_B.5_k=2,i=4: 423 gammap_2_4 - vp_2_4 >= 0
Contrainte_B.5_k=3,i=0: 423 gammap_3_0 - vp_3_0 >= 0
Contrainte_B.5_k=3,i=1: 423 gammap_3_1 - vp_3_1 >= 0
Contrainte_B.5_k=3,i=2: 423 gammap_3_2 - vp_3_2 >= 0
Contrainte_B.5_k=3,i=3: 423 gammap_3_3 - vp_3_3 >= 0
Contrainte_B.5_k=3,i=4: 423 gammap_3_4 - vp_3_4 >= 0
Contrainte_B.5_k=4,i=0: 423 gammap_4_0 - vp_4_0 >= 0
Contrainte_B.5_k=4,i=1: 423 gammap_4_1 - vp_4_1 >= 0
Contrainte_B.5_k=4,i=2: 423 gammap_4_2 - vp_4_2 >= 0
Contrainte_B.5_k=4,i=3: 423 gammap_4_3 - vp_4_3 >= 0
Contrainte_B.5_k=4,i=4: 423 gammap_4_4 - vp_4_4 >= 0
Contrainte_B.5_k=5,i=0: 423 gammap_5_0 - vp_5_0 >= 0
Contrainte_B.5_k=5,i=1: 423 gammap_5_1 - vp_5_1 >= 0
Contrainte_B.5_k=5,i=2: 423 gammap_5_2 - vp_5_2 >= 0
Contrainte_B.5_k=5,i=3: 423 gammap_5_3 - vp_5_3 >= 0
Contrainte_B.5_k=5,i=4: 423 gammap_5_4 - vp_5_4 >= 0
Contrainte_B.5_k=6,i=0: 423 gammap_6_0 - vp_6_0 >= 0
Contrainte_B.5_k=6,i=1: 423 gammap_6_1 - vp_6_1 >= 0
Contrainte_B.5_k=6,i=2: 423 gammap_6_2 - vp_6_2 >= 0
Contrainte_B.5_k=6,i=3: 423 gammap_6_3 - vp_6_3 >= 0
Contrainte_B.5_k=6,i=4: 423 gammap_6_4 - vp_6_4 >= 0
Contrainte_B.5_k=7,i=0: 423 gammap_7_0 - vp_7_0 >= 0
Contrainte_B.5_k=7,i=1: 423 gammap_7_1 - vp_7_1 >= 0
Contrainte_B.5_k=7,i=2: 423 gammap_7_2 - vp_7_2 >= 0
Contrainte_B.5_k=7,i=3: 423 gammap_7_3 - vp_7_3 >= 0
Contrainte_B.5_k=7,i=4: 423 gammap_7_4 - vp_7_4 >= 0
Contrainte_B.5_k=8,i=0: 423 gammap_8_0 - vp_8_0 >= 0
Contrainte_B.5_k=8,i=1: 423 gammap_8_1 - vp_8_1 >= 0
Contrainte_B.5_k=8,i=2: 423 gammap_8_2 - vp_8_2 >= 0
Contrainte_B.5_k=8,i=3: 423 gammap_8_3 - vp_8_3 >= 0
Contrainte_B.5_k=8,i=4: 423 gammap_8_4 - vp_8_4 >= 0
Contrainte_B.6_k=0,i=0: 423 gamman_0_0 - vn_0_0 >= 0
Contrainte_B.6_k=0,i=1: 423 gamman_0_1 - vn_0_1 >= 0
Contrainte_B.6_k=0,i=2: 423 gamman_0_2 - vn_0_2 >= 0
Contrainte_B.6_k=0,i=3: 423 gamman_0_3 - vn_0_3 >= 0
Contrainte_B.6_k=0,i=4: 423 gamman_0_4 - vn_0_4 >= 0
Contrainte_B.6_k=1,i=0: 423 gamman_1_0 - vn_1_0 >= 0
Contrainte_B.6_k=1,i=1: 423 gamman_1_1 - vn_1_1 >= 0
Contrainte_B.6_k=1,i=2: 423 gamman_1_2 - vn_1_2 >= 0
Contrainte_B.6_k=1,i=3: 423 gamman_1_3 - vn_1_3 >= 0
Contrainte_B.6_k=1,i=4: 423 gamman_1_4 - vn_1_4 >= 0
Contrainte_B.6_k=2,i=0: 423 gamman_2_0 - vn_2_0 >= 0
Contrainte_B.6_k=2,i=1: 423 gamman_2_1 - vn_2_1 >= 0
Contrainte_B.6_k=2,i=2: 423 gamman_2_2 - vn_2_2 >= 0
Contrainte_B.6_k=2,i=3: 423 gamman_2_3 - vn_2_3 >= 0
Contrainte_B.6_k=2,i=4: 423 gamman_2_4 - vn_2_4 >= 0
Contrainte_B.6_k=3,i=0: 423 gamman_3_0 - vn_3_0 >= 0
Contrainte_B.6_k=3,i=1: 423 gamman_3_1 - vn_3_1 >= 0
Contrainte_B.6_k=3,i=2: 423 gamman_3_2 - vn_3_2 >= 0
Contrainte_B.6_k=3,i=3: 423 gamman_3_3 - vn_3_3 >= 0
Contrainte_B.6_k=3,i=4: 423 gamman_3_4 - vn_3_4 >= 0
Contrainte_B.6_k=4,i=0: 423 gamman_4_0 - vn_4_0 >= 0
Contrainte_B.6_k=4,i=1: 423 gamman_4_1 - vn_4_1 >= 0
Contrainte_B.6_k=4,i=2: 423 gamman_4_2 - vn_4_2 >= 0
Contrainte_B.6_k=4,i=3: 423 gamman_4_3 - vn_4_3 >= 0
Contrainte_B.6_k=4,i=4: 423 gamman_4_4 - vn_4_4 >= 0
Contrainte_B.6_k=5,i=0: 423 gamman_5_0 - vn_5_0 >= 0
Contrainte_B.6_k=5,i=1: 423 gamman_5_1 - vn_5_1 >= 0
Contrainte_B.6_k=5,i=2: 423 gamman_5_2 - vn_5_2 >= 0
Contrainte_B.6_k=5,i=3: 423 gamman_5_3 - vn_5_3 >= 0
Contrainte_B.6_k=5,i=4: 423 gamman_5_4 - vn_5_4 >= 0
Contrainte_B.6_k=6,i=0: 423 gamman_6_0 - vn_6_0 >= 0
Contrainte_B.6_k=6,i=1: 423 gamman_6_1 - vn_6_1 >= 0
Contrainte_B.6_k=6,i=2: 423 gamman_6_2 - vn_6_2 >= 0
Contrainte_B.6_k=6,i=3: 423 gamman_6_3 - vn_6_3 >= 0
Contrainte_B.6_k=6,i=4: 423 gamman_6_4 - vn_6_4 >= 0
Contrainte_B.6_k=7,i=0: 423 gamman_7_0 - vn_7_0 >= 0
Contrainte_B.6_k=7,i=1: 423 gamman_7_1 - vn_7_1 >= 0
Contrainte_B.6_k=7,i=2: 423 gamman_7_2 - vn_7_2 >= 0
Contrainte_B.6_k=7,i=3: 423 gamman_7_3 - vn_7_3 >= 0
Contrainte_B.6_k=7,i=4: 423 gamman_7_4 - vn_7_4 >= 0
Contrainte_B.6_k=8,i=0: 423 gamman_8_0 - vn_8_0 >= 0
Contrainte_B.6_k=8,i=1: 423 gamman_8_1 - vn_8_1 >= 0
Contrainte_B.6_k=8,i=2: 423 gamman_8_2 - vn_8_2 >= 0
Contrainte_B.6_k=8,i=3: 423 gamman_8_3 - vn_8_3 >= 0
Contrainte_B.6_k=8,i=4: 423 gamman_8_4 - vn_8_4 >= 0
Contrainte_B.7_k=0: - gamman_0_0 - gamman_0_1 - gamman_0_2 - gamman_0_3
 - gamman_0_4 + gammap_0_0 + gammap_0_1 + gammap_0_2 + gammap_0_3 + gammap_0_4
 = 0
Contrainte_B.7_k=1: - gamman_1_0 - gamman_1_1 - gamman_1_2 - gamman_1_3
 - gamman_1_4 + gammap_1_0 + gammap_1_1 + gammap_1_2 + gammap_1_3 + gammap_1_4
 = 0
Contrainte_B.7_k=2: - gamman_2_0 - gamman_2_1 - gamman_2_2 - gamman_2_3
 - gamman_2_4 + gammap_2_0 + gammap_2_1 + gammap_2_2 + gammap_2_3 + gammap_2_4
 = 0
Contrainte_B.7_k=3: - gamman_3_0 - gamman_3_1 - gamman_3_2 - gamman_3_3
 - gamman_3_4 + gammap_3_0 + gammap_3_1 + gammap_3_2 + gammap_3_3 + gammap_3_4
 = 0
Contrainte_B.7_k=4: - gamman_4_0 - gamman_4_1 - gamman_4_2 - gamman_4_3
 - gamman_4_4 + gammap_4_0 + gammap_4_1 + gammap_4_2 + gammap_4_3 + gammap_4_4
 = 0
Contrainte_B.7_k=5: - gamman_5_0 - gamman_5_1 - gamman_5_2 - gamman_5_3
 - gamman_5_4 + gammap_5_0 + gammap_5_1 + gammap_5_2 + gammap_5_3 + gammap_5_4
 = 0
Contrainte_B.7_k=6: - gamman_6_0 - gamman_6_1 - gamman_6_2 - gamman_6_3
 - gamman_6_4 + gammap_6_0 + gammap_6_1 + gammap_6_2 + gammap_6_3 + gammap_6_4
 = 0
Contrainte_B.7_k=7: - gamman_7_0 - gamman_7_1 - gamman_7_2 - gamman_7_3
 - gamman_7_4 + gammap_7_0 + gammap_7_1 + gammap_7_2 + gammap_7_3 + gammap_7_4
 = 0
Contrainte_B.7_k=8: - gamman_8_0 - gamman_8_1 - gamman_8_2 - gamman_8_3
 - gamman_8_4 + gammap_8_0 + gammap_8_1 + gammap_8_2 + gammap_8_3 + gammap_8_4
 = 0
Contrainte_B.8_k=0,i=0,j=1: - gamman_0_1 - gammap_0_0 + 2 t_0_1_0 <= 0
Contrainte_B.8_k=0,i=0,j=2: - gamman_0_2 - gammap_0_0 + 2 t_0_2_0 <= 0
Contrainte_B.8_k=0,i=0,j=3: - gamman_0_3 - gammap_0_0 + 2 t_0_3_0 <= 0
Contrainte_B.8_k=0,i=0,j=4: - gamman_0_4 - gammap_0_0 + 2 t_0_4_0 <= 0
Contrainte_B.8_k=0,i=1,j=2: - gamman_0_2 - gammap_0_1 + 2 t_0_2_1 <= 0
Contrainte_B.8_k=0,i=1,j=3: - gamman_0_3 - gammap_0_1 + 2 t_0_3_1 <= 0
Contrainte_B.8_k=0,i=1,j=4: - gamman_0_4 - gammap_0_1 + 2 t_0_4_1 <= 0
Contrainte_B.8_k=0,i=2,j=3: - gamman_0_3 - gammap_0_2 + 2 t_0_3_2 <= 0
Contrainte_B.8_k=0,i=2,j=4: - gamman_0_4 - gammap_0_2 + 2 t_0_4_2 <= 0
Contrainte_B.8_k=0,i=3,j=4: - gamman_0_4 - gammap_0_3 + 2 t_0_4_3 <= 0
Contrainte_B.8_k=1,i=0,j=1: - gamman_1_1 - gammap_1_0 + 2 t_1_1_0 <= 0
Contrainte_B.8_k=1,i=0,j=2: - gamman_1_2 - gammap_1_0 + 2 t_1_2_0 <= 0
Contrainte_B.8_k=1,i=0,j=3: - gamman_1_3 - gammap_1_0 + 2 t_1_3_0 <= 0
Contrainte_B.8_k=1,i=0,j=4: - gamman_1_4 - gammap_1_0 + 2 t_1_4_0 <= 0
Contrainte_B.8_k=1,i=1,j=2: - gamman_1_2 - gammap_1_1 + 2 t_1_2_1 <= 0
Contrainte_B.8_k=1,i=1,j=3: - gamman_1_3 - gammap_1_1 + 2 t_1_3_1 <= 0
Contrainte_B.8_k=1,i=1,j=4: - gamman_1_4 - gammap_1_1 + 2 t_1_4_1 <= 0
Contrainte_B.8_k=1,i=2,j=3: - gamman_1_3 - gammap_1_2 + 2 t_1_3_2 <= 0
Contrainte_B.8_k=1,i=2,j=4: - gamman_1_4 - gammap_1_2 + 2 t_1_4_2 <= 0
Contrainte_B.8_k=1,i=3,j=4: - gamman_1_4 - gammap_1_3 + 2 t_1_4_3 <= 0
Contrainte_B.8_k=2,i=0,j=1: - gamman_2_1 - gammap_2_0 + 2 t_2_1_0 <= 0
Contrainte_B.8_k=2,i=0,j=2: - gamman_2_2 - gammap_2_0 + 2 t_2_2_0 <= 0
Contrainte_B.8_k=2,i=0,j=3: - gamman_2_3 - gammap_2_0 + 2 t_2_3_0 <= 0
Contrainte_B.8_k=2,i=0,j=4: - gamman_2_4 - gammap_2_0 + 2 t_2_4_0 <= 0
Contrainte_B.8_k=2,i=1,j=2: - gamman_2_2 - gammap_2_1 + 2 t_2_2_1 <= 0
Contrainte_B.8_k=2,i=1,j=3: - gamman_2_3 - gammap_2_1 + 2 t_2_3_1 <= 0
Contrainte_B.8_k=2,i=1,j=4: - gamman_2_4 - gammap_2_1 + 2 t_2_4_1 <= 0
Contrainte_B.8_k=2,i=2,j=3: - gamman_2_3 - gammap_2_2 + 2 t_2_3_2 <= 0
Contrainte_B.8_k=2,i=2,j=4: - gamman_2_4 - gammap_2_2 + 2 t_2_4_2 <= 0
Contrainte_B.8_k=2,i=3,j=4: - gamman_2_4 - gammap_2_3 + 2 t_2_4_3 <= 0
Contrainte_B.8_k=3,i=0,j=1: - gamman_3_1 - gammap_3_0 + 2 t_3_1_0 <= 0
Contrainte_B.8_k=3,i=0,j=2: - gamman_3_2 - gammap_3_0 + 2 t_3_2_0 <= 0
Contrainte_B.8_k=3,i=0,j=3: - gamman_3_3 - gammap_3_0 + 2 t_3_3_0 <= 0
Contrainte_B.8_k=3,i=0,j=4: - gamman_3_4 - gammap_3_0 + 2 t_3_4_0 <= 0
Contrainte_B.8_k=3,i=1,j=2: - gamman_3_2 - gammap_3_1 + 2 t_3_2_1 <= 0
Contrainte_B.8_k=3,i=1,j=3: - gamman_3_3 - gammap_3_1 + 2 t_3_3_1 <= 0
Contrainte_B.8_k=3,i=1,j=4: - gamman_3_4 - gammap_3_1 + 2 t_3_4_1 <= 0
Contrainte_B.8_k=3,i=2,j=3: - gamman_3_3 - gammap_3_2 + 2 t_3_3_2 <= 0
Contrainte_B.8_k=3,i=2,j=4: - gamman_3_4 - gammap_3_2 + 2 t_3_4_2 <= 0
Contrainte_B.8_k=3,i=3,j=4: - gamman_3_4 - gammap_3_3 + 2 t_3_4_3 <= 0
Contrainte_B.8_k=4,i=0,j=1: - gamman_4_1 - gammap_4_0 + 2 t_4_1_0 <= 0
Contrainte_B.8_k=4,i=0,j=2: - gamman_4_2 - gammap_4_0 + 2 t_4_2_0 <= 0
Contrainte_B.8_k=4,i=0,j=3: - gamman_4_3 - gammap_4_0 + 2 t_4_3_0 <= 0
Contrainte_B.8_k=4,i=0,j=4: - gamman_4_4 - gammap_4_0 + 2 t_4_4_0 <= 0
Contrainte_B.8_k=4,i=1,j=2: - gamman_4_2 - gammap_4_1 + 2 t_4_2_1 <= 0
Contrainte_B.8_k=4,i=1,j=3: - gamman_4_3 - gammap_4_1 + 2 t_4_3_1 <= 0
Contrainte_B.8_k=4,i=1,j=4: - gamman_4_4 - gammap_4_1 + 2 t_4_4_1 <= 0
Contrainte_B.8_k=4,i=2,j=3: - gamman_4_3 - gammap_4_2 + 2 t_4_3_2 <= 0
Contrainte_B.8_k=4,i=2,j=4: - gamman_4_4 - gammap_4_2 + 2 t_4_4_2 <= 0
Contrainte_B.8_k=4,i=3,j=4: - gamman_4_4 - gammap_4_3 + 2 t_4_4_3 <= 0
Contrainte_B.8_k=5,i=0,j=1: - gamman_5_1 - gammap_5_0 + 2 t_5_1_0 <= 0
Contrainte_B.8_k=5,i=0,j=2: - gamman_5_2 - gammap_5_0 + 2 t_5_2_0 <= 0
Contrainte_B.8_k=5,i=0,j=3: - gamman_5_3 - gammap_5_0 + 2 t_5_3_0 <= 0
Contrainte_B.8_k=5,i=0,j=4: - gamman_5_4 - gammap_5_0 + 2 t_5_4_0 <= 0
Contrainte_B.8_k=5,i=1,j=2: - gamman_5_2 - gammap_5_1 + 2 t_5_2_1 <= 0
Contrainte_B.8_k=5,i=1,j=3: - gamman_5_3 - gammap_5_1 + 2 t_5_3_1 <= 0
Contrainte_B.8_k=5,i=1,j=4: - gamman_5_4 - gammap_5_1 + 2 t_5_4_1 <= 0
Contrainte_B.8_k=5,i=2,j=3: - gamman_5_3 - gammap_5_2 + 2 t_5_3_2 <= 0
Contrainte_B.8_k=5,i=2,j=4: - gamman_5_4 - gammap_5_2 + 2 t_5_4_2 <= 0
Contrainte_B.8_k=5,i=3,j=4: - gamman_5_4 - gammap_5_3 + 2 t_5_4_3 <= 0
Contrainte_B.8_k=6,i=0,j=1: - gamman_6_1 - gammap_6_0 + 2 t_6_1_0 <= 0
Contrainte_B.8_k=6,i=0,j=2: - gamman_6_2 - gammap_6_0 + 2 t_6_2_0 <= 0
Contrainte_B.8_k=6,i=0,j=3: - gamman_6_3 - gammap_6_0 + 2 t_6_3_0 <= 0
Contrainte_B.8_k=6,i=0,j=4: - gamman_6_4 - gammap_6_0 + 2 t_6_4_0 <= 0
Contrainte_B.8_k=6,i=1,j=2: - gamman_6_2 - gammap_6_1 + 2 t_6_2_1 <= 0
Contrainte_B.8_k=6,i=1,j=3: - gamman_6_3 - gammap_6_1 + 2 t_6_3_1 <= 0
Contrainte_B.8_k=6,i=1,j=4: - gamman_6_4 - gammap_6_1 + 2 t_6_4_1 <= 0
Contrainte_B.8_k=6,i=2,j=3: - gamman_6_3 - gammap_6_2 + 2 t_6_3_2 <= 0
Contrainte_B.8_k=6,i=2,j=4: - gamman_6_4 - gammap_6_2 + 2 t_6_4_2 <= 0
Contrainte_B.8_k=6,i=3,j=4: - gamman_6_4 - gammap_6_3 + 2 t_6_4_3 <= 0
Contrainte_B.8_k=7,i=0,j=1: - gamman_7_1 - gammap_7_0 + 2 t_7_1_0 <= 0
Contrainte_B.8_k=7,i=0,j=2: - gamman_7_2 - gammap_7_0 + 2 t_7_2_0 <= 0
Contrainte_B.8_k=7,i=0,j=3: - gamman_7_3 - gammap_7_0 + 2 t_7_3_0 <= 0
Contrainte_B.8_k=7,i=0,j=4: - gamman_7_4 - gammap_7_0 + 2 t_7_4_0 <= 0
Contrainte_B.8_k=7,i=1,j=2: - gamman_7_2 - gammap_7_1 + 2 t_7_2_1 <= 0
Contrainte_B.8_k=7,i=1,j=3: - gamman_7_3 - gammap_7_1 + 2 t_7_3_1 <= 0
Contrainte_B.8_k=7,i=1,j=4: - gamman_7_4 - gammap_7_1 + 2 t_7_4_1 <= 0
Contrainte_B.8_k=7,i=2,j=3: - gamman_7_3 - gammap_7_2 + 2 t_7_3_2 <= 0
Contrainte_B.8_k=7,i=2,j=4: - gamman_7_4 - gammap_7_2 + 2 t_7_4_2 <= 0
Contrainte_B.8_k=7,i=3,j=4: - gamman_7_4 - gammap_7_3 + 2 t_7_4_3 <= 0
Contrainte_B.8_k=8,i=0,j=1: - gamman_8_1 - gammap_8_0 + 2 t_8_1_0 <= 0
Contrainte_B.8_k=8,i=0,j=2: - gamman_8_2 - gammap_8_0 + 2 t_8_2_0 <= 0
Contrainte_B.8_k=8,i=0,j=3: - gamman_8_3 - gammap_8_0 + 2 t_8_3_0 <= 0
Contrainte_B.8_k=8,i=0,j=4: - gamman_8_4 - gammap_8_0 + 2 t_8_4_0 <= 0
Contrainte_B.8_k=8,i=1,j=2: - gamman_8_2 - gammap_8_1 + 2 t_8_2_1 <= 0
Contrainte_B.8_k=8,i=1,j=3: - gamman_8_3 - gammap_8_1 + 2 t_8_3_1 <= 0
Contrainte_B.8_k=8,i=1,j=4: - gamman_8_4 - gammap_8_1 + 2 t_8_4_1 <= 0
Contrainte_B.8_k=8,i=2,j=3: - gamman_8_3 - gammap_8_2 + 2 t_8_3_2 <= 0
Contrainte_B.8_k=8,i=2,j=4: - gamman_8_4 - gammap_8_2 + 2 t_8_4_2 <= 0
Contrainte_B.8_k=8,i=3,j=4: - gamman_8_4 - gammap_8_3 + 2 t_8_4_3 <= 0
Contrainte_B.9_k=0,i=0,j=1: - gamman_0_1 - gammap_0_0 + 2 t_0_1_0 >= -1
Contrainte_B.9_k=0,i=0,j=2: - gamman_0_2 - gammap_0_0 + 2 t_0_2_0 >= -1
Contrainte_B.9_k=0,i=0,j=3: - gamman_0_3 - gammap_0_0 + 2 t_0_3_0 >= -1
Contrainte_B.9_k=0,i=0,j=4: - gamman_0_4 - gammap_0_0 + 2 t_0_4_0 >= -1
Contrainte_B.9_k=0,i=1,j=2: - gamman_0_2 - gammap_0_1 + 2 t_0_2_1 >= -1
Contrainte_B.9_k=0,i=1,j=3: - gamman_0_3 - gammap_0_1 + 2 t_0_3_1 >= -1
Contrainte_B.9_k=0,i=1,j=4: - gamman_0_4 - gammap_0_1 + 2 t_0_4_1 >= -1
Contrainte_B.9_k=0,i=2,j=3: - gamman_0_3 - gammap_0_2 + 2 t_0_3_2 >= -1
Contrainte_B.9_k=0,i=2,j=4: - gamman_0_4 - gammap_0_2 + 2 t_0_4_2 >= -1
Contrainte_B.9_k=0,i=3,j=4: - gamman_0_4 - gammap_0_3 + 2 t_0_4_3 >= -1
Contrainte_B.9_k=1,i=0,j=1: - gamman_1_1 - gammap_1_0 + 2 t_1_1_0 >= -1
Contrainte_B.9_k=1,i=0,j=2: - gamman_1_2 - gammap_1_0 + 2 t_1_2_0 >= -1
Contrainte_B.9_k=1,i=0,j=3: - gamman_1_3 - gammap_1_0 + 2 t_1_3_0 >= -1
Contrainte_B.9_k=1,i=0,j=4: - gamman_1_4 - gammap_1_0 + 2 t_1_4_0 >= -1
Contrainte_B.9_k=1,i=1,j=2: - gamman_1_2 - gammap_1_1 + 2 t_1_2_1 >= -1
Contrainte_B.9_k=1,i=1,j=3: - gamman_1_3 - gammap_1_1 + 2 t_1_3_1 >= -1
Contrainte_B.9_k=1,i=1,j=4: - gamman_1_4 - gammap_1_1 + 2 t_1_4_1 >= -1
Contrainte_B.9_k=1,i=2,j=3: - gamman_1_3 - gammap_1_2 + 2 t_1_3_2 >= -1
Contrainte_B.9_k=1,i=2,j=4: - gamman_1_4 - gammap_1_2 + 2 t_1_4_2 >= -1
Contrainte_B.9_k=1,i=3,j=4: - gamman_1_4 - gammap_1_3 + 2 t_1_4_3 >= -1
Contrainte_B.9_k=2,i=0,j=1: - gamman_2_1 - gammap_2_0 + 2 t_2_1_0 >= -1
Contrainte_B.9_k=2,i=0,j=2: - gamman_2_2 - gammap_2_0 + 2 t_2_2_0 >= -1
Contrainte_B.9_k=2,i=0,j=3: - gamman_2_3 - gammap_2_0 + 2 t_2_3_0 >= -1
Contrainte_B.9_k=2,i=0,j=4: - gamman_2_4 - gammap_2_0 + 2 t_2_4_0 >= -1
Contrainte_B.9_k=2,i=1,j=2: - gamman_2_2 - gammap_2_1 + 2 t_2_2_1 >= -1
Contrainte_B.9_k=2,i=1,j=3: - gamman_2_3 - gammap_2_1 + 2 t_2_3_1 >= -1
Contrainte_B.9_k=2,i=1,j=4: - gamman_2_4 - gammap_2_1 + 2 t_2_4_1 >= -1
Contrainte_B.9_k=2,i=2,j=3: - gamman_2_3 - gammap_2_2 + 2 t_2_3_2 >= -1
Contrainte_B.9_k=2,i=2,j=4: - gamman_2_4 - gammap_2_2 + 2 t_2_4_2 >= -1
Contrainte_B.9_k=2,i=3,j=4: - gamman_2_4 - gammap_2_3 + 2 t_2_4_3 >= -1
Contrainte_B.9_k=3,i=0,j=1: - gamman_3_1 - gammap_3_0 + 2 t_3_1_0 >= -1
Contrainte_B.9_k=3,i=0,j=2: - gamman_3_2 - gammap_3_0 + 2 t_3_2_0 >= -1
Contrainte_B.9_k=3,i=0,j=3: - gamman_3_3 - gammap_3_0 + 2 t_3_3_0 >= -1
Contrainte_B.9_k=3,i=0,j=4: - gamman_3_4 - gammap_3_0 + 2 t_3_4_0 >= -1
Contrainte_B.9_k=3,i=1,j=2: - gamman_3_2 - gammap_3_1 + 2 t_3_2_1 >= -1
Contrainte_B.9_k=3,i=1,j=3: - gamman_3_3 - gammap_3_1 + 2 t_3_3_1 >= -1
Contrainte_B.9_k=3,i=1,j=4: - gamman_3_4 - gammap_3_1 + 2 t_3_4_1 >= -1
Contrainte_B.9_k=3,i=2,j=3: - gamman_3_3 - gammap_3_2 + 2 t_3_3_2 >= -1
Contrainte_B.9_k=3,i=2,j=4: - gamman_3_4 - gammap_3_2 + 2 t_3_4_2 >= -1
Contrainte_B.9_k=3,i=3,j=4: - gamman_3_4 - gammap_3_3 + 2 t_3_4_3 >= -1
Contrainte_B.9_k=4,i=0,j=1: - gamman_4_1 - gammap_4_0 + 2 t_4_1_0 >= -1
Contrainte_B.9_k=4,i=0,j=2: - gamman_4_2 - gammap_4_0 + 2 t_4_2_0 >= -1
Contrainte_B.9_k=4,i=0,j=3: - gamman_4_3 - gammap_4_0 + 2 t_4_3_0 >= -1
Contrainte_B.9_k=4,i=0,j=4: - gamman_4_4 - gammap_4_0 + 2 t_4_4_0 >= -1
Contrainte_B.9_k=4,i=1,j=2: - gamman_4_2 - gammap_4_1 + 2 t_4_2_1 >= -1
Contrainte_B.9_k=4,i=1,j=3: - gamman_4_3 - gammap_4_1 + 2 t_4_3_1 >= -1
Contrainte_B.9_k=4,i=1,j=4: - gamman_4_4 - gammap_4_1 + 2 t_4_4_1 >= -1
Contrainte_B.9_k=4,i=2,j=3: - gamman_4_3 - gammap_4_2 + 2 t_4_3_2 >= -1
Contrainte_B.9_k=4,i=2,j=4: - gamman_4_4 - gammap_4_2 + 2 t_4_4_2 >= -1
Contrainte_B.9_k=4,i=3,j=4: - gamman_4_4 - gammap_4_3 + 2 t_4_4_3 >= -1
Contrainte_B.9_k=5,i=0,j=1: - gamman_5_1 - gammap_5_0 + 2 t_5_1_0 >= -1
Contrainte_B.9_k=5,i=0,j=2: - gamman_5_2 - gammap_5_0 + 2 t_5_2_0 >= -1
Contrainte_B.9_k=5,i=0,j=3: - gamman_5_3 - gammap_5_0 + 2 t_5_3_0 >= -1
Contrainte_B.9_k=5,i=0,j=4: - gamman_5_4 - gammap_5_0 + 2 t_5_4_0 >= -1
Contrainte_B.9_k=5,i=1,j=2: - gamman_5_2 - gammap_5_1 + 2 t_5_2_1 >= -1
Contrainte_B.9_k=5,i=1,j=3: - gamman_5_3 - gammap_5_1 + 2 t_5_3_1 >= -1
Contrainte_B.9_k=5,i=1,j=4: - gamman_5_4 - gammap_5_1 + 2 t_5_4_1 >= -1
Contrainte_B.9_k=5,i=2,j=3: - gamman_5_3 - gammap_5_2 + 2 t_5_3_2 >= -1
Contrainte_B.9_k=5,i=2,j=4: - gamman_5_4 - gammap_5_2 + 2 t_5_4_2 >= -1
Contrainte_B.9_k=5,i=3,j=4: - gamman_5_4 - gammap_5_3 + 2 t_5_4_3 >= -1
Contrainte_B.9_k=6,i=0,j=1: - gamman_6_1 - gammap_6_0 + 2 t_6_1_0 >= -1
Contrainte_B.9_k=6,i=0,j=2: - gamman_6_2 - gammap_6_0 + 2 t_6_2_0 >= -1
Contrainte_B.9_k=6,i=0,j=3: - gamman_6_3 - gammap_6_0 + 2 t_6_3_0 >= -1
Contrainte_B.9_k=6,i=0,j=4: - gamman_6_4 - gammap_6_0 + 2 t_6_4_0 >= -1
Contrainte_B.9_k=6,i=1,j=2: - gamman_6_2 - gammap_6_1 + 2 t_6_2_1 >= -1
Contrainte_B.9_k=6,i=1,j=3: - gamman_6_3 - gammap_6_1 + 2 t_6_3_1 >= -1
Contrainte_B.9_k=6,i=1,j=4: - gamman_6_4 - gammap_6_1 + 2 t_6_4_1 >= -1
Contrainte_B.9_k=6,i=2,j=3: - gamman_6_3 - gammap_6_2 + 2 t_6_3_2 >= -1
Contrainte_B.9_k=6,i=2,j=4: - gamman_6_4 - gammap_6_2 + 2 t_6_4_2 >= -1
Contrainte_B.9_k=6,i=3,j=4: - gamman_6_4 - gammap_6_3 + 2 t_6_4_3 >= -1
Contrainte_B.9_k=7,i=0,j=1: - gamman_7_1 - gammap_7_0 + 2 t_7_1_0 >= -1
Contrainte_B.9_k=7,i=0,j=2: - gamman_7_2 - gammap_7_0 + 2 t_7_2_0 >= -1
Contrainte_B.9_k=7,i=0,j=3: - gamman_7_3 - gammap_7_0 + 2 t_7_3_0 >= -1
Contrainte_B.9_k=7,i=0,j=4: - gamman_7_4 - gammap_7_0 + 2 t_7_4_0 >= -1
Contrainte_B.9_k=7,i=1,j=2: - gamman_7_2 - gammap_7_1 + 2 t_7_2_1 >= -1
Contrainte_B.9_k=7,i=1,j=3: - gamman_7_3 - gammap_7_1 + 2 t_7_3_1 >= -1
Contrainte_B.9_k=7,i=1,j=4: - gamman_7_4 - gammap_7_1 + 2 t_7_4_1 >= -1
Contrainte_B.9_k=7,i=2,j=3: - gamman_7_3 - gammap_7_2 + 2 t_7_3_2 >= -1
Contrainte_B.9_k=7,i=2,j=4: - gamman_7_4 - gammap_7_2 + 2 t_7_4_2 >= -1
Contrainte_B.9_k=7,i=3,j=4: - gamman_7_4 - gammap_7_3 + 2 t_7_4_3 >= -1
Contrainte_B.9_k=8,i=0,j=1: - gamman_8_1 - gammap_8_0 + 2 t_8_1_0 >= -1
Contrainte_B.9_k=8,i=0,j=2: - gamman_8_2 - gammap_8_0 + 2 t_8_2_0 >= -1
Contrainte_B.9_k=8,i=0,j=3: - gamman_8_3 - gammap_8_0 + 2 t_8_3_0 >= -1
Contrainte_B.9_k=8,i=0,j=4: - gamman_8_4 - gammap_8_0 + 2 t_8_4_0 >= -1
Contrainte_B.9_k=8,i=1,j=2: - gamman_8_2 - gammap_8_1 + 2 t_8_2_1 >= -1
Contrainte_B.9_k=8,i=1,j=3: - gamman_8_3 - gammap_8_1 + 2 t_8_3_1 >= -1
Contrainte_B.9_k=8,i=1,j=4: - gamman_8_4 - gammap_8_1 + 2 t_8_4_1 >= -1
Contrainte_B.9_k=8,i=2,j=3: - gamman_8_3 - gammap_8_2 + 2 t_8_3_2 >= -1
Contrainte_B.9_k=8,i=2,j=4: - gamman_8_4 - gammap_8_2 + 2 t_8_4_2 >= -1
Contrainte_B.9_k=8,i=3,j=4: - gamman_8_4 - gammap_8_3 + 2 t_8_4_3 >= -1
Contrainte_C.11_k=0: 423 g_0 - u_0_0 - u_0_1 - u_0_2 - u_0_3 - u_0_4 >= 0
Contrainte_C.11_k=1: 423 g_1 - u_1_0 - u_1_1 - u_1_2 - u_1_3 - u_1_4 >= 0
Contrainte_C.11_k=2: 423 g_2 - u_2_0 - u_2_1 - u_2_2 - u_2_3 - u_2_4 >= 0
Contrainte_C.11_k=3: 423 g_3 - u_3_0 - u_3_1 - u_3_2 - u_3_3 - u_3_4 >= 0
Contrainte_C.11_k=4: 423 g_4 - u_4_0 - u_4_1 - u_4_2 - u_4_3 - u_4_4 >= 0
Contrainte_C.11_k=5: 423 g_5 - u_5_0 - u_5_1 - u_5_2 - u_5_3 - u_5_4 >= 0
Contrainte_C.11_k=6: 423 g_6 - u_6_0 - u_6_1 - u_6_2 - u_6_3 - u_6_4 >= 0
Contrainte_C.11_k=7: 423 g_7 - u_7_0 - u_7_1 - u_7_2 - u_7_3 - u_7_4 >= 0
Contrainte_C.11_k=8: 423 g_8 - u_8_0 - u_8_1 - u_8_2 - u_8_3 - u_8_4 >= 0
Contrainte_C.11bis_k=0: 423 g_0 - u_0_0 - u_0_1 - u_0_2 - u_0_3 - u_0_4
 <= 422.99999
Contrainte_C.11bis_k=1: 423 g_1 - u_1_0 - u_1_1 - u_1_2 - u_1_3 - u_1_4
 <= 422.99999
Contrainte_C.11bis_k=2: 423 g_2 - u_2_0 - u_2_1 - u_2_2 - u_2_3 - u_2_4
 <= 422.99999
Contrainte_C.11bis_k=3: 423 g_3 - u_3_0 - u_3_1 - u_3_2 - u_3_3 - u_3_4
 <= 422.99999
Contrainte_C.11bis_k=4: 423 g_4 - u_4_0 - u_4_1 - u_4_2 - u_4_3 - u_4_4
 <= 422.99999
Contrainte_C.11bis_k=5: 423 g_5 - u_5_0 - u_5_1 - u_5_2 - u_5_3 - u_5_4
 <= 422.99999
Contrainte_C.11bis_k=6: 423 g_6 - u_6_0 - u_6_1 - u_6_2 - u_6_3 - u_6_4
 <= 422.99999
Contrainte_C.11bis_k=7: 423 g_7 - u_7_0 - u_7_1 - u_7_2 - u_7_3 - u_7_4
 <= 422.99999
Contrainte_C.11bis_k=8: 423 g_8 - u_8_0 - u_8_1 - u_8_2 - u_8_3 - u_8_4
 <= 422.99999
Contrainte_F.12_k=0,j=0: - lambda_0_0 + 10000000 pi_0_0 >= 0
Contrainte_F.12_k=1,j=0: - lambda_1_0 + 10000000 pi_1_0 >= 0
Contrainte_F.12_k=2,j=0: - lambda_2_0 + 10000000 pi_2_0 >= 0
Contrainte_F.12_k=3,j=0: - lambda_3_0 + 10000000 pi_3_0 >= 0
Contrainte_F.12_k=4,j=0: - lambda_4_0 + 10000000 pi_4_0 >= 0
Contrainte_F.12_k=5,j=0: - lambda_5_0 + 10000000 pi_5_0 >= 0
Contrainte_F.12_k=6,j=0: - lambda_6_0 + 10000000 pi_6_0 >= 0
Contrainte_F.12_k=7,j=0: - lambda_7_0 + 10000000 pi_7_0 >= 0
Contrainte_F.12_k=8,j=0: - lambda_8_0 + 10000000 pi_8_0 >= 0
Contrainte_F.12bis_k=0,j=0: - lambda_0_0 + 10000000 pi_0_0 <= 9999999.99999
Contrainte_F.12bis_k=1,j=0: - lambda_1_0 + 10000000 pi_1_0 <= 9999999.99999
Contrainte_F.12bis_k=2,j=0: - lambda_2_0 + 10000000 pi_2_0 <= 9999999.99999
Contrainte_F.12bis_k=3,j=0: - lambda_3_0 + 10000000 pi_3_0 <= 9999999.99999
Contrainte_F.12bis_k=4,j=0: - lambda_4_0 + 10000000 pi_4_0 <= 9999999.99999
Contrainte_F.12bis_k=5,j=0: - lambda_5_0 + 10000000 pi_5_0 <= 9999999.99999
Contrainte_F.12bis_k=6,j=0: - lambda_6_0 + 10000000 pi_6_0 <= 9999999.99999
Contrainte_F.12bis_k=7,j=0: - lambda_7_0 + 10000000 pi_7_0 <= 9999999.99999
Contrainte_F.12bis_k=8,j=0: - lambda_8_0 + 10000000 pi_8_0 <= 9999999.99999
Contrainte_F.13_k=0: g_0 + pi_0_0 + t_0_1_0 + t_0_2_0 + t_0_2_1 + t_0_3_0
 + t_0_3_1 + t_0_3_2 + t_0_4_0 + t_0_4_1 + t_0_4_2 + t_0_4_3 <= 1
Contrainte_F.13_k=1: g_1 + pi_1_0 + t_1_1_0 + t_1_2_0 + t_1_2_1 + t_1_3_0
 + t_1_3_1 + t_1_3_2 + t_1_4_0 + t_1_4_1 + t_1_4_2 + t_1_4_3 <= 1
Contrainte_F.13_k=2: g_2 + pi_2_0 + t_2_1_0 + t_2_2_0 + t_2_2_1 + t_2_3_0
 + t_2_3_1 + t_2_3_2 + t_2_4_0 + t_2_4_1 + t_2_4_2 + t_2_4_3 <= 1
Contrainte_F.13_k=3: g_3 + pi_3_0 + t_3_1_0 + t_3_2_0 + t_3_2_1 + t_3_3_0
 + t_3_3_1 + t_3_3_2 + t_3_4_0 + t_3_4_1 + t_3_4_2 + t_3_4_3 <= 1
Contrainte_F.13_k=4: g_4 + pi_4_0 + t_4_1_0 + t_4_2_0 + t_4_2_1 + t_4_3_0
 + t_4_3_1 + t_4_3_2 + t_4_4_0 + t_4_4_1 + t_4_4_2 + t_4_4_3 <= 1
Contrainte_F.13_k=5: g_5 + pi_5_0 + t_5_1_0 + t_5_2_0 + t_5_2_1 + t_5_3_0
 + t_5_3_1 + t_5_3_2 + t_5_4_0 + t_5_4_1 + t_5_4_2 + t_5_4_3 <= 1
Contrainte_F.13_k=6: g_6 + pi_6_0 + t_6_1_0 + t_6_2_0 + t_6_2_1 + t_6_3_0
 + t_6_3_1 + t_6_3_2 + t_6_4_0 + t_6_4_1 + t_6_4_2 + t_6_4_3 <= 1
Contrainte_F.13_k=7: g_7 + pi_7_0 + t_7_1_0 + t_7_2_0 + t_7_2_1 + t_7_3_0
 + t_7_3_1 + t_7_3_2 + t_7_4_0 + t_7_4_1 + t_7_4_2 + t_7_4_3 <= 1
Contrainte_F.13_k=8: g_8 + pi_8_0 + t_8_1_0 + t_8_2_0 + t_8_2_1 + t_8_3_0
 + t_8_3_1 + t_8_3_2 + t_8_4_0 + t_8_4_1 + t_8_4_2 + t_8_4_3 <= 1
Contrainte_F.14_k=0,i=0: - 4 lambda_0_0 - u_0_0 + vn_0_0 - vp_0_0 - x_0_0
 + x_1_0 = 0
Contrainte_F.14_k=0,i=1: 8 lambda_0_0 - u_0_1 + vn_0_1 - vp_0_1 - x_0_1
 + x_1_1 = 0
Contrainte_F.14_k=0,i=2: 10 lambda_0_0 - u_0_2 + vn_0_2 - vp_0_2 - x_0_2
 + x_1_2 = 0
Contrainte_F.14_k=0,i=3: - 4 lambda_0_0 - u_0_3 + vn_0_3 - vp_0_3 - x_0_3
 + x_1_3 = 0
Contrainte_F.14_k=0,i=4: 2 lambda_0_0 - u_0_4 + vn_0_4 - vp_0_4 - x_0_4
 + x_1_4 = 0
Contrainte_F.14_k=1,i=0: - 4 lambda_1_0 - u_1_0 + vn_1_0 - vp_1_0 - x_1_0
 + x_2_0 = 0
Contrainte_F.14_k=1,i=1: 8 lambda_1_0 - u_1_1 + vn_1_1 - vp_1_1 - x_1_1
 + x_2_1 = 0
Contrainte_F.14_k=1,i=2: 10 lambda_1_0 - u_1_2 + vn_1_2 - vp_1_2 - x_1_2
 + x_2_2 = 0
Contrainte_F.14_k=1,i=3: - 4 lambda_1_0 - u_1_3 + vn_1_3 - vp_1_3 - x_1_3
 + x_2_3 = 0
Contrainte_F.14_k=1,i=4: 2 lambda_1_0 - u_1_4 + vn_1_4 - vp_1_4 - x_1_4
 + x_2_4 = 0
Contrainte_F.14_k=2,i=0: - 4 lambda_2_0 - u_2_0 + vn_2_0 - vp_2_0 - x_2_0
 + x_3_0 = 0
Contrainte_F.14_k=2,i=1: 8 lambda_2_0 - u_2_1 + vn_2_1 - vp_2_1 - x_2_1
 + x_3_1 = 0
Contrainte_F.14_k=2,i=2: 10 lambda_2_0 - u_2_2 + vn_2_2 - vp_2_2 - x_2_2
 + x_3_2 = 0
Contrainte_F.14_k=2,i=3: - 4 lambda_2_0 - u_2_3 + vn_2_3 - vp_2_3 - x_2_3
 + x_3_3 = 0
Contrainte_F.14_k=2,i=4: 2 lambda_2_0 - u_2_4 + vn_2_4 - vp_2_4 - x_2_4
 + x_3_4 = 0
Contrainte_F.14_k=3,i=0: - 4 lambda_3_0 - u_3_0 + vn_3_0 - vp_3_0 - x_3_0
 + x_4_0 = 0
Contrainte_F.14_k=3,i=1: 8 lambda_3_0 - u_3_1 + vn_3_1 - vp_3_1 - x_3_1
 + x_4_1 = 0
Contrainte_F.14_k=3,i=2: 10 lambda_3_0 - u_3_2 + vn_3_2 - vp_3_2 - x_3_2
 + x_4_2 = 0
Contrainte_F.14_k=3,i=3: - 4 lambda_3_0 - u_3_3 + vn_3_3 - vp_3_3 - x_3_3
 + x_4_3 = 0
Contrainte_F.14_k=3,i=4: 2 lambda_3_0 - u_3_4 + vn_3_4 - vp_3_4 - x_3_4
 + x_4_4 = 0
Contrainte_F.14_k=4,i=0: - 4 lambda_4_0 - u_4_0 + vn_4_0 - vp_4_0 - x_4_0
 + x_5_0 = 0
Contrainte_F.14_k=4,i=1: 8 lambda_4_0 - u_4_1 + vn_4_1 - vp_4_1 - x_4_1
 + x_5_1 = 0
Contrainte_F.14_k=4,i=2: 10 lambda_4_0 - u_4_2 + vn_4_2 - vp_4_2 - x_4_2
 + x_5_2 = 0
Contrainte_F.14_k=4,i=3: - 4 lambda_4_0 - u_4_3 + vn_4_3 - vp_4_3 - x_4_3
 + x_5_3 = 0
Contrainte_F.14_k=4,i=4: 2 lambda_4_0 - u_4_4 + vn_4_4 - vp_4_4 - x_4_4
 + x_5_4 = 0
Contrainte_F.14_k=5,i=0: - 4 lambda_5_0 - u_5_0 + vn_5_0 - vp_5_0 - x_5_0
 + x_6_0 = 0
Contrainte_F.14_k=5,i=1: 8 lambda_5_0 - u_5_1 + vn_5_1 - vp_5_1 - x_5_1
 + x_6_1 = 0
Contrainte_F.14_k=5,i=2: 10 lambda_5_0 - u_5_2 + vn_5_2 - vp_5_2 - x_5_2
 + x_6_2 = 0
Contrainte_F.14_k=5,i=3: - 4 lambda_5_0 - u_5_3 + vn_5_3 - vp_5_3 - x_5_3
 + x_6_3 = 0
Contrainte_F.14_k=5,i=4: 2 lambda_5_0 - u_5_4 + vn_5_4 - vp_5_4 - x_5_4
 + x_6_4 = 0
Contrainte_F.14_k=6,i=0: - 4 lambda_6_0 - u_6_0 + vn_6_0 - vp_6_0 - x_6_0
 + x_7_0 = 0
Contrainte_F.14_k=6,i=1: 8 lambda_6_0 - u_6_1 + vn_6_1 - vp_6_1 - x_6_1
 + x_7_1 = 0
Contrainte_F.14_k=6,i=2: 10 lambda_6_0 - u_6_2 + vn_6_2 - vp_6_2 - x_6_2
 + x_7_2 = 0
Contrainte_F.14_k=6,i=3: - 4 lambda_6_0 - u_6_3 + vn_6_3 - vp_6_3 - x_6_3
 + x_7_3 = 0
Contrainte_F.14_k=6,i=4: 2 lambda_6_0 - u_6_4 + vn_6_4 - vp_6_4 - x_6_4
 + x_7_4 = 0
Contrainte_F.14_k=7,i=0: - 4 lambda_7_0 - u_7_0 + vn_7_0 - vp_7_0 - x_7_0
 + x_8_0 = 0
Contrainte_F.14_k=7,i=1: 8 lambda_7_0 - u_7_1 + vn_7_1 - vp_7_1 - x_7_1
 + x_8_1 = 0
Contrainte_F.14_k=7,i=2: 10 lambda_7_0 - u_7_2 + vn_7_2 - vp_7_2 - x_7_2
 + x_8_2 = 0
Contrainte_F.14_k=7,i=3: - 4 lambda_7_0 - u_7_3 + vn_7_3 - vp_7_3 - x_7_3
 + x_8_3 = 0
Contrainte_F.14_k=7,i=4: 2 lambda_7_0 - u_7_4 + vn_7_4 - vp_7_4 - x_7_4
 + x_8_4 = 0
Contrainte_F.14_k=8,i=0: - 4 lambda_8_0 - u_8_0 + vn_8_0 - vp_8_0 - x_8_0
 + x_9_0 = 0
Contrainte_F.14_k=8,i=1: 8 lambda_8_0 - u_8_1 + vn_8_1 - vp_8_1 - x_8_1
 + x_9_1 = 0
Contrainte_F.14_k=8,i=2: 10 lambda_8_0 - u_8_2 + vn_8_2 - vp_8_2 - x_8_2
 + x_9_2 = 0
Contrainte_F.14_k=8,i=3: - 4 lambda_8_0 - u_8_3 + vn_8_3 - vp_8_3 - x_8_3
 + x_9_3 = 0
Contrainte_F.14_k=8,i=4: 2 lambda_8_0 - u_8_4 + vn_8_4 - vp_8_4 - x_8_4
 + x_9_4 = 0
Bounds
 __dummy = 0
 0 <= u_0_0
 0 <= u_0_1
 0 <= u_0_2
 0 <= u_0_3
 0 <= u_0_4
 0 <= u_1_0
 0 <= u_1_1
 0 <= u_1_2
 0 <= u_1_3
 0 <= u_1_4
 0 <= u_2_0
 0 <= u_2_1
 0 <= u_2_2
 0 <= u_2_3
 0 <= u_2_4
 0 <= u_3_0
 0 <= u_3_1
 0 <= u_3_2
 0 <= u_3_3
 0 <= u_3_4
 0 <= u_4_0
 0 <= u_4_1
 0 <= u_4_2
 0 <= u_4_3
 0 <= u_4_4
 0 <= u_5_0
 0 <= u_5_1
 0 <= u_5_2
 0 <= u_5_3
 0 <= u_5_4
 0 <= u_6_0
 0 <= u_6_1
 0 <= u_6_2
 0 <= u_6_3
 0 <= u_6_4
 0 <= u_7_0
 0 <= u_7_1
 0 <= u_7_2
 0 <= u_7_3
 0 <= u_7_4
 0 <= u_8_0
 0 <= u_8_1
 0 <= u_8_2
 0 <= u_8_3
 0 <= u_8_4
 0 <= vn_0_0
 0 <= vn_0_1
 0 <= vn_0_2
 0 <= vn_0_3
 0 <= vn_0_4
 0 <= vn_1_0
 0 <= vn_1_1
 0 <= vn_1_2
 0 <= vn_1_3
 0 <= vn_1_4
 0 <= vn_2_0
 0 <= vn_2_1
 0 <= vn_2_2
 0 <= vn_2_3
 0 <= vn_2_4
 0 <= vn_3_0
 0 <= vn_3_1
 0 <= vn_3_2
 0 <= vn_3_3
 0 <= vn_3_4
 0 <= vn_4_0
 0 <= vn_4_1
 0 <= vn_4_2
 0 <= vn_4_3
 0 <= vn_4_4
 0 <= vn_5_0
 0 <= vn_5_1
 0 <= vn_5_2
 0 <= vn_5_3
 0 <= vn_5_4
 0 <= vn_6_0
 0 <= vn_6_1
 0 <= vn_6_2
 0 <= vn_6_3
 0 <= vn_6_4
 0 <= vn_7_0
 0 <= vn_7_1
 0 <= vn_7_2
 0 <= vn_7_3
 0 <= vn_7_4
 0 <= vn_8_0
 0 <= vn_8_1
 0 <= vn_8_2
 0 <= vn_8_3
 0 <= vn_8_4
 0 <= vp_0_0
 0 <= vp_0_1
 0 <= vp_0_2
 0 <= vp_0_3
 0 <= vp_0_4
 0 <= vp_1_0
 0 <= vp_1_1
 0 <= vp_1_2
 0 <= vp_1_3
 0 <= vp_1_4
 0 <= vp_2_0
 0 <= vp_2_1
 0 <= vp_2_2
 0 <= vp_2_3
 0 <= vp_2_4
 0 <= vp_3_0
 0 <= vp_3_1
 0 <= vp_3_2
 0 <= vp_3_3
 0 <= vp_3_4
 0 <= vp_4_0
 0 <= vp_4_1
 0 <= vp_4_2
 0 <= vp_4_3
 0 <= vp_4_4
 0 <= vp_5_0
 0 <= vp_5_1
 0 <= vp_5_2
 0 <= vp_5_3
 0 <= vp_5_4
 0 <= vp_6_0
 0 <= vp_6_1
 0 <= vp_6_2
 0 <= vp_6_3
 0 <= vp_6_4
 0 <= vp_7_0
 0 <= vp_7_1
 0 <= vp_7_2
 0 <= vp_7_3
 0 <= vp_7_4
 0 <= vp_8_0
 0 <= vp_8_1
 0 <= vp_8_2
 0 <= vp_8_3
 0 <= vp_8_4
 0 <= x_0_0
 0 <= x_0_1
 0 <= x_0_2
 0 <= x_0_3
 0 <= x_0_4
 0 <= x_1_0
 0 <= x_1_1
 0 <= x_1_2
 0 <= x_1_3
 0 <= x_1_4
 0 <= x_2_0
 0 <= x_2_1
 0 <= x_2_2
 0 <= x_2_3
 0 <= x_2_4
 0 <= x_3_0
 0 <= x_3_1
 0 <= x_3_2
 0 <= x_3_3
 0 <= x_3_4
 0 <= x_4_0
 0 <= x_4_1
 0 <= x_4_2
 0 <= x_4_3
 0 <= x_4_4
 0 <= x_5_0
 0 <= x_5_1
 0 <= x_5_2
 0 <= x_5_3
 0 <= x_5_4
 0 <= x_6_0
 0 <= x_6_1
 0 <= x_6_2
 0 <= x_6_3
 0 <= x_6_4
 0 <= x_7_0
 0 <= x_7_1
 0 <= x_7_2
 0 <= x_7_3
 0 <= x_7_4
 0 <= x_8_0
 0 <= x_8_1
 0 <= x_8_2
 0 <= x_8_3
 0 <= x_8_4
 0 <= x_9_0
 0 <= x_9_1
 0 <= x_9_2
 0 <= x_9_3
 0 <= x_9_4
Generals
u_0_0
u_0_1
u_0_2
u_0_3
u_0_4
u_1_0
u_1_1
u_1_2
u_1_3
u_1_4
u_2_0
u_2_1
u_2_2
u_2_3
u_2_4
u_3_0
u_3_1
u_3_2
u_3_3
u_3_4
u_4_0
u_4_1
u_4_2
u_4_3
u_4_4
u_5_0
u_5_1
u_5_2
u_5_3
u_5_4
u_6_0
u_6_1
u_6_2
u_6_3
u_6_4
u_7_0
u_7_1
u_7_2
u_7_3
u_7_4
u_8_0
u_8_1
u_8_2
u_8_3
u_8_4
vn_0_0
vn_0_1
vn_0_2
vn_0_3
vn_0_4
vn_1_0
vn_1_1
vn_1_2
vn_1_3
vn_1_4
vn_2_0
vn_2_1
vn_2_2
vn_2_3
vn_2_4
vn_3_0
vn_3_1
vn_3_2
vn_3_3
vn_3_4
vn_4_0
vn_4_1
vn_4_2
vn_4_3
vn_4_4
vn_5_0
vn_5_1
vn_5_2
vn_5_3
vn_5_4
vn_6_0
vn_6_1
vn_6_2
vn_6_3
vn_6_4
vn_7_0
vn_7_1
vn_7_2
vn_7_3
vn_7_4
vn_8_0
vn_8_1
vn_8_2
vn_8_3
vn_8_4
vp_0_0
vp_0_1
vp_0_2
vp_0_3
vp_0_4
vp_1_0
vp_1_1
vp_1_2
vp_1_3
vp_1_4
vp_2_0
vp_2_1
vp_2_2
vp_2_3
vp_2_4
vp_3_0
vp_3_1
vp_3_2
vp_3_3
vp_3_4
vp_4_0
vp_4_1
vp_4_2
vp_4_3
vp_4_4
vp_5_0
vp_5_1
vp_5_2
vp_5_3
vp_5_4
vp_6_0
vp_6_1
vp_6_2
vp_6_3
vp_6_4
vp_7_0
vp_7_1
vp_7_2
vp_7_3
vp_7_4
vp_8_0
vp_8_1
vp_8_2
vp_8_3
vp_8_4
x_0_0
x_0_1
x_0_2
x_0_3
x_0_4
x_1_0
x_1_1
x_1_2
x_1_3
x_1_4
x_2_0
x_2_1
x_2_2
x_2_3
x_2_4
x_3_0
x_3_1
x_3_2
x_3_3
x_3_4
x_4_0
x_4_1
x_4_2
x_4_3
x_4_4
x_5_0
x_5_1
x_5_2
x_5_3
x_5_4
x_6_0
x_6_1
x_6_2
x_6_3
x_6_4
x_7_0
x_7_1
x_7_2
x_7_3
x_7_4
x_8_0
x_8_1
x_8_2
x_8_3
x_8_4
x_9_0
x_9_1
x_9_2
x_9_3
x_9_4
Binaries
g_0
g_1
g_2
g_3
g_4
g_5
g_6
g_7
g_8
gamman_0_0
gamman_0_1
gamman_0_2
gamman_0_3
gamman_0_4
gamman_1_0
gamman_1_1
gamman_1_2
gamman_1_3
gamman_1_4
gamman_2_0
gamman_2_1
gamman_2_2
gamman_2_3
gamman_2_4
gamman_3_0
gamman_3_1
gamman_3_2
gamman_3_3
gamman_3_4
gamman_4_0
gamman_4_1
gamman_4_2
gamman_4_3
gamman_4_4
gamman_5_0
gamman_5_1
gamman_5_2
gamman_5_3
gamman_5_4
gamman_6_0
gamman_6_1
gamman_6_2
gamman_6_3
gamman_6_4
gamman_7_0
gamman_7_1
gamman_7_2
gamman_7_3
gamman_7_4
gamman_8_0
gamman_8_1
gamman_8_2
gamman_8_3
gamman_8_4
gammap_0_0
gammap_0_1
gammap_0_2
gammap_0_3
gammap_0_4
gammap_1_0
gammap_1_1
gammap_1_2
gammap_1_3
gammap_1_4
gammap_2_0
gammap_2_1
gammap_2_2
gammap_2_3
gammap_2_4
gammap_3_0
gammap_3_1
gammap_3_2
gammap_3_3
gammap_3_4
gammap_4_0
gammap_4_1
gammap_4_2
gammap_4_3
gammap_4_4
gammap_5_0
gammap_5_1
gammap_5_2
gammap_5_3
gammap_5_4
gammap_6_0
gammap_6_1
gammap_6_2
gammap_6_3
gammap_6_4
gammap_7_0
gammap_7_1
gammap_7_2
gammap_7_3
gammap_7_4
gammap_8_0
gammap_8_1
gammap_8_2
gammap_8_3
gammap_8_4
pi_0_0
pi_1_0
pi_2_0
pi_3_0
pi_4_0
pi_5_0
pi_6_0
pi_7_0
pi_8_0
t_0_1_0
t_0_2_0
t_0_2_1
t_0_3_0
t_0_3_1
t_0_3_2
t_0_4_0
t_0_4_1
t_0_4_2
t_0_4_3
t_1_1_0
t_1_2_0
t_1_2_1
t_1_3_0
t_1_3_1
t_1_3_2
t_1_4_0
t_1_4_1
t_1_4_2
t_1_4_3
t_2_1_0
t_2_2_0
t_2_2_1
t_2_3_0
t_2_3_1
t_2_3_2
t_2_4_0
t_2_4_1
t_2_4_2
t_2_4_3
t_3_1_0
t_3_2_0
t_3_2_1
t_3_3_0
t_3_3_1
t_3_3_2
t_3_4_0
t_3_4_1
t_3_4_2
t_3_4_3
t_4_1_0
t_4_2_0
t_4_2_1
t_4_3_0
t_4_3_1
t_4_3_2
t_4_4_0
t_4_4_1
t_4_4_2
t_4_4_3
t_5_1_0
t_5_2_0
t_5_2_1
t_5_3_0
t_5_3_1
t_5_3_2
t_5_4_0
t_5_4_1
t_5_4_2
t_5_4_3
t_6_1_0
t_6_2_0
t_6_2_1
t_6_3_0
t_6_3_1
t_6_3_2
t_6_4_0
t_6_4_1
t_6_4_2
t_6_4_3
t_7_1_0
t_7_2_0
t_7_2_1
t_7_3_0
t_7_3_1
t_7_3_2
t_7_4_0
t_7_4_1
t_7_4_2
t_7_4_3
t_8_1_0
t_8_2_0
t_8_2_1
t_8_3_0
t_8_3_1
t_8_3_2
t_8_4_0
t_8_4_1
t_8_4_2
t_8_4_3
End
