\*  *\
Minimize
Objectif: __dummy
Subject To
Contrainte_4.9a_i=0: 4 lambda_0 + u_0 - vn_0 + vp_0 = 2
Contrainte_4.9a_i=1: - 8 lambda_0 + u_1 - vn_1 + vp_1 = -3
Contrainte_4.9a_i=2: - 10 lambda_0 + u_2 - vn_2 + vp_2 = 8
Contrainte_4.9a_i=3: 4 lambda_0 + u_3 - vn_3 + vp_3 = 50
Contrainte_4.9a_i=4: - 2 lambda_0 + u_4 - vn_4 + vp_4 = -18
Contrainte_4.9b_i=4: - vn_0 - vn_1 - vn_2 - vn_3 - vn_4 + vp_0 + vp_1 + vp_2
 + vp_3 + vp_4 = 0
_dummy: __dummy = 0
Contrainte_4.9c_i=0: __dummy >= 0
Contrainte_4.9c_i=1: - vn_0 + vp_0 >= 0
Contrainte_4.9c_i=2: - vn_0 - vn_1 + vp_0 + vp_1 >= 0
Contrainte_4.9c_i=3: - vn_0 - vn_1 - vn_2 + vp_0 + vp_1 + vp_2 >= 0
Bounds
 __dummy = 0
 0 <= u_0
 0 <= u_1
 0 <= u_2
 0 <= u_3
 0 <= u_4
 0 <= vn_0
 0 <= vn_1
 0 <= vn_2
 0 <= vn_3
 0 <= vn_4
 0 <= vp_0
 0 <= vp_1
 0 <= vp_2
 0 <= vp_3
 0 <= vp_4
Generals
u_0
u_1
u_2
u_3
u_4
vn_0
vn_1
vn_2
vn_3
vn_4
vp_0
vp_1
vp_2
vp_3
vp_4
End
