\*  *\
Minimize
Objectif: __dummy
Subject To
Contrainte_4.10_i=0: 4 lambda_0 + tau_1_0 + tau_2_0 + tau_3_0 + tau_4_0 + u_0
 = 2
Contrainte_4.10_i=1: - 8 lambda_0 - tau_1_0 + tau_2_1 + tau_3_1 + tau_4_1
 + u_1 = -3
Contrainte_4.10_i=2: - 10 lambda_0 - tau_2_0 - tau_2_1 + tau_3_2 + tau_4_2
 + u_2 = 8
Contrainte_4.10_i=3: 4 lambda_0 - tau_3_0 - tau_3_1 - tau_3_2 + tau_4_3 + u_3
 = 50
Contrainte_4.10_i=4: - 2 lambda_0 - tau_4_0 - tau_4_1 - tau_4_2 - tau_4_3
 + u_4 = -18
Bounds
 __dummy = 0
 0 <= tau_1_0
 0 <= tau_2_0
 0 <= tau_2_1
 0 <= tau_3_0
 0 <= tau_3_1
 0 <= tau_3_2
 0 <= tau_4_0
 0 <= tau_4_1
 0 <= tau_4_2
 0 <= tau_4_3
 0 <= u_0
 0 <= u_1
 0 <= u_2
 0 <= u_3
 0 <= u_4
Generals
tau_1_0
tau_2_0
tau_2_1
tau_3_0
tau_3_1
tau_3_2
tau_4_0
tau_4_1
tau_4_2
tau_4_3
u_0
u_1
u_2
u_3
u_4
End
